finished,start_date,end_date,recorded_date,gender,age,enrolment_school,student_status,citizenship,ethnic_group,living_situation,current_circumstance,covid_19_stress_1,covid_19_stress_2,covid_19_stress_3,covid_19_stress_4,covid_19_stress_5,covid_19_stress_6,covid_19_stress_7,covid_19_stress_8,covid_19_stress_9,covid_19_stress_10,covid_19_stress_11,covid_19_stress_12,covid_19_stress_13,coping_strategies_1,coping_strategies_2,coping_strategies_3,coping_strategies_4,coping_strategies_5,coping_strategies_6,coping_strategies_7,coping_strategies_8,coping_strategies_9,coping_strategies_10,coping_strategies_11,coping_strategies_12,coping_strategies_13,coping_strategies_14,coping_strategies_15,generalv_wellbeing_1,generalv_wellbeing_2,generalv_wellbeing_3,generalv_wellbeing_4,generalv_wellbeing_5,generalv_wellbeing_6,music_info_4,music_info_5,prop_miss_all
TRUE,2020-04-13T14:50:30Z,2020-04-13T15:09:55Z,2020-04-13T15:09:56Z,female,22,3,2,Chinese,Chinese,6,4,5,5,4,5,5,5,3,3,5,5,5,5,5,3,4,3,3,4,4,4,5,4,3,3,1,2,3,4,1,3,3,3,4,4,,,0
FALSE,2020-04-13T15:31:11Z,2020-04-13T15:41:32Z,2020-04-20T15:41:36Z,female,0,3,1,,,NA,6,NA,NA,NA,NA,NA,NA,NA,NA,NA,NA,NA,NA,NA,NA,NA,NA,NA,NA,NA,NA,NA,NA,NA,NA,NA,NA,NA,NA,NA,NA,NA,NA,NA,NA,,,0.7291666666666666
TRUE,2020-04-21T14:03:23Z,2020-04-21T14:17:46Z,2020-04-21T14:17:46Z,female,99,3,1,,,3,4,NA,NA,NA,NA,NA,NA,NA,NA,NA,NA,NA,NA,NA,NA,NA,NA,NA,NA,NA,NA,NA,NA,NA,NA,NA,NA,NA,NA,NA,NA,NA,NA,NA,NA,,,0.7083333333333334
FALSE,2020-04-15T16:16:10Z,2020-04-15T16:16:54Z,2020-04-22T16:17:23Z,female,999,3,2,Chinese,Chinese,6,4,NA,NA,NA,NA,NA,NA,NA,NA,NA,NA,NA,NA,NA,NA,NA,NA,NA,NA,NA,NA,NA,NA,NA,NA,NA,NA,NA,NA,NA,NA,NA,NA,NA,NA,,,0.7083333333333334
TRUE,2020-04-22T20:56:26Z,2020-04-22T21:07:03Z,2020-04-22T21:07:04Z,female,51,3,1,Australia,White Australian,1,4,4,2,4,4,2,2,4,2,2,4,2,4,2,5,6,4,4,3,4,4,4,5,5,4,1,4,1,5,2,4,4,2,4,4,,,0
TRUE,2020-04-24T08:42:24Z,2020-04-24T08:55:40Z,2020-04-24T08:55:41Z,female,17,5,1,Australia,Australian (Caucasian),1,4,2,2,4,4,2,4,4,2,2,4,4,4,2,4,5,4,5,3,3,4,4,4,4,4,1,4,5,4,2,2,4,4,4,2,Julie Byrne,Follow My Voice,0
TRUE,2020-04-24T10:18:55Z,2020-04-24T10:35:00Z,2020-04-24T10:35:00Z,male,18,5,1,"USA, Australia",European American,1,4,4,2,2,4,3,2,2,2,2,5,4,2,4,5,3,4,5,1,4,3,2,4,1,5,1,4,1,3,2,4,2,2,4,2,KT Tunstall,Other Side of the World,0
TRUE,2020-04-24T11:22:39Z,2020-04-24T11:28:11Z,2020-04-24T11:28:11Z,female,17,5,1,Australia,Chinese-Australian,1,4,1,1,4,4,2,5,5,4,1,2,3,1,4,6,6,5,3,6,6,6,6,6,6,6,1,1,1,6,1,5,4,4,4,2,Friday Night Plans,Plastic Love,0
TRUE,2020-04-24T11:56:43Z,2020-04-24T12:10:19Z,2020-04-24T12:10:20Z,female,17,5,1,Australia,Chinese/Vietnamese,1,4,4,2,5,2,4,5,5,3,4,5,4,4,2,5,5,4,3,1,3,5,4,3,4,5,6,5,6,5,5,2,4,4,4,5,"Bethel Music, Kristene Dimarco",It Is Well,0
FALSE,2020-04-15T16:12:15Z,2020-04-19T13:56:52Z,2020-04-26T13:57:19Z,female,999,3,2,Chinese,Chinese,6,4,NA,NA,NA,NA,NA,NA,NA,NA,NA,NA,NA,NA,NA,NA,NA,NA,NA,NA,NA,NA,NA,NA,NA,NA,NA,NA,NA,NA,NA,NA,NA,NA,NA,NA,,,0.7083333333333334
TRUE,2020-04-26T19:18:10Z,2020-04-26T19:32:19Z,2020-04-26T19:32:20Z,male,18,5,1,"Australian, UK",Caucasian,2,4,4,2,4,2,1,4,2,4,2,2,2,4,4,5,5,5,6,3,3,4,4,2,1,3,1,5,1,4,4,2,2,4,2,1,,,0
TRUE,2020-04-26T19:40:51Z,2020-04-26T19:52:39Z,2020-04-26T19:52:40Z,female,18,5,1,UK and Australia,,1,4,5,4,4,5,5,4,5,5,5,5,5,4,4,5,6,5,5,5,3,4,6,4,5,6,1,6,6,5,4,5,5,4,4,5,George Ezra,Pretty Smiling People,0
TRUE,2020-04-26T19:43:02Z,2020-04-26T20:02:27Z,2020-04-26T20:02:27Z,female,18,5,1,"Netherlands, Belgium, New Zealand",Caucasian,1,4,1,5,4,2,1,4,5,5,2,1,2,4,2,4,4,3,4,4,5,5,5,5,3,6,1,3,1,3,3,4,3,3,3,4,Daniela Andrade,Shore- EP,0
TRUE,2020-04-26T19:48:01Z,2020-04-26T20:05:55Z,2020-04-26T20:05:55Z,female,17,5,1,Australia,Australia,1,4,1,1,1,3,1,4,3,2,2,5,5,3,4,5,6,1,2,2,3,3,4,5,1,1,1,5,1,4,2,4,2,5,2,1,Miley Cyrus,The Climb,0
TRUE,2020-04-26T20:11:15Z,2020-04-26T20:22:03Z,2020-04-26T20:22:04Z,female,18,5,1,Australia,Caucasian,1,4,4,1,4,5,1,5,3,3,4,5,4,4,5,1,5,1,5,4,4,4,5,5,1,4,1,4,1,1,4,1,2,4,3,4,Shawn Mendes,A Little Too Much / Youth,0
TRUE,2020-04-26T20:20:59Z,2020-04-26T20:30:37Z,2020-04-26T20:30:37Z,female,18,5,1,Australia,Asian/Vietnamese,1,4,2,2,2,2,2,3,2,2,2,4,2,2,3,1,4,3,2,2,2,2,2,5,5,5,1,1,1,3,1,1,3,5,2,1,There's more than one lol,It's a Spotify playlist of my liked songs,0
TRUE,2020-04-26T20:36:18Z,2020-04-26T20:49:10Z,2020-04-26T20:49:10Z,male,17,5,1,Australia,None,1,4,2,2,1,2,3,5,3,3,2,2,2,2,3,6,1,4,4,3,4,3,5,6,1,5,1,1,1,4,5,5,5,5,2,3,,,0
TRUE,2020-04-26T20:38:07Z,2020-04-26T20:49:40Z,2020-04-26T20:49:41Z,female,17,5,1,Australia,Australian,1,4,2,2,2,2,3,4,3,3,2,4,2,4,2,5,4,4,4,3,4,4,5,5,2,5,1,5,1,4,2,5,4,5,2,2,,,0
TRUE,2020-04-26T20:43:21Z,2020-04-26T20:50:11Z,2020-04-26T20:50:12Z,female,17,5,1,Australian,white,1,4,5,4,3,3,4,4,4,2,4,5,4,4,4,5,6,4,6,2,2,2,4,6,3,1,1,5,4,5,1,3,1,5,1,1,Novo Amor,anchor,0
TRUE,2020-04-26T20:37:07Z,2020-04-26T20:51:24Z,2020-04-26T20:51:25Z,male,19,5,1,Australia,Caucasian,1,4,3,4,3,3,1,5,5,5,3,4,4,2,4,6,4,2,2,2,4,4,2,4,2,2,1,1,4,2,2,5,3,5,1,4,,,0
TRUE,2020-04-26T21:14:52Z,2020-04-26T21:23:14Z,2020-04-26T21:23:14Z,prefer not to say,18,5,1,"Thailand, Australia","Australian, Thai",1,4,3,2,4,4,1,4,4,2,3,5,5,5,2,1,4,1,2,2,3,2,1,4,5,5,1,1,1,4,5,1,3,1,4,4,NCT Dream,Fireflies,0
TRUE,2020-04-26T20:07:57Z,2020-04-26T21:57:32Z,2020-04-26T21:57:32Z,female,17,5,1,Australia,Australian,1,6,5,2,4,5,2,5,1,2,4,5,5,4,4,1,5,3,5,2,2,2,4,5,2,4,1,4,3,5,1,2,3,5,1,1,Dodie,Burned Out,0
TRUE,2020-04-26T21:46:46Z,2020-04-26T22:00:08Z,2020-04-26T22:00:08Z,female,17,3,1,Australia,Sri Lankan,1,4,2,2,4,2,4,2,3,2,2,2,2,2,2,5,5,4,4,5,5,4,4,4,5,5,4,5,4,4,2,5,3,4,4,3,My heart will go on,CÃ©line Dion,0
TRUE,2020-04-26T21:50:55Z,2020-04-26T22:06:44Z,2020-04-26T22:06:45Z,female,17,5,1,Australia,Albannaich,1,6,5,3,3,5,5,5,5,5,5,5,3,3,5,2,4,5,5,5,6,4,5,6,3,5,1,4,1,3,4,2,2,4,4,2,Marconi union,Weightless,0
TRUE,2020-04-26T22:43:32Z,2020-04-26T22:51:48Z,2020-04-26T22:51:48Z,female,17,5,1,Australia and Romania,Romanian,1,4,2,2,2,4,5,4,5,2,2,5,4,2,2,4,6,5,4,2,5,1,6,4,4,4,1,6,3,2,2,4,3,4,4,3,Blood orange,Champagne coast,0
TRUE,2020-04-26T22:48:25Z,2020-04-26T23:01:19Z,2020-04-26T23:01:19Z,female,17,5,1,Australia and uk,Caucasian,1,4,2,1,4,2,2,5,5,4,1,4,3,2,2,2,5,4,5,4,4,3,5,5,1,6,1,4,4,5,3,2,3,5,1,3,Nicholas Britell,A rose in Spanish Harlem,0
TRUE,2020-04-26T23:03:04Z,2020-04-26T23:14:32Z,2020-04-26T23:14:33Z,female,18,5,1,New Zealand,Caucasian,1,6,5,3,4,5,2,4,3,2,4,5,5,5,5,3,5,3,4,5,3,3,5,5,4,4,1,5,2,3,3,4,4,4,3,3,Cosmo Sheldrake,Green Grass,0
TRUE,2020-04-26T23:09:47Z,2020-04-26T23:20:43Z,2020-04-26T23:20:43Z,male,17,5,1,Australia,Chinese,1,4,4,4,5,5,4,5,4,2,2,5,4,2,2,5,4,1,2,5,5,5,4,4,1,1,1,1,1,1,2,4,3,4,2,4,Sci-Inspi,Expired Milk,0
TRUE,2020-04-26T23:30:02Z,2020-04-26T23:50:51Z,2020-04-26T23:50:51Z,female,18,5,1,Australia,Caucasian,1,4,4,4,4,4,1,4,5,2,3,4,4,4,2,4,4,3,2,3,4,3,2,3,1,3,1,4,2,2,2,4,4,4,2,2,Gorillaz,Feel good inc.,0
TRUE,2020-04-27T01:05:51Z,2020-04-27T01:14:41Z,2020-04-27T01:14:42Z,female,18,2,1,Australia,Chinese,1,4,5,5,5,5,1,5,3,3,5,5,5,4,2,4,6,4,6,3,5,4,4,4,1,1,1,4,1,5,1,1,1,5,2,2,Debussy,Claire De Lune,0
TRUE,2020-04-27T07:23:57Z,2020-04-27T07:37:27Z,2020-04-27T07:37:28Z,female,17,5,1,Australia,South Sudanese (Nuer),1,4,4,4,4,5,1,4,4,3,4,4,4,2,5,5,4,4,3,5,5,5,4,3,4,5,1,5,4,4,2,3,2,5,4,3,Childish Gambino,The night me and your mama met,0
TRUE,2020-04-27T08:33:02Z,2020-04-27T08:50:59Z,2020-04-27T08:51:00Z,female,36,3,1,Australia,Australian,1,4,3,4,5,2,1,1,1,1,1,4,1,3,4,4,1,5,5,5,5,5,2,1,5,4,1,1,1,3,1,1,2,1,5,4,,,0
TRUE,2020-04-27T09:22:12Z,2020-04-27T09:32:16Z,2020-04-27T09:32:16Z,female,17,5,1,None,White,3,4,4,2,2,3,1,5,2,2,3,2,2,2,3,4,4,2,5,1,4,1,1,1,1,3,1,5,5,4,5,4,4,4,2,4,Kanye West,Stronger,0
TRUE,2020-04-27T09:23:24Z,2020-04-27T09:38:05Z,2020-04-27T09:38:06Z,female,18,5,1,Australia,Asian,3,4,2,1,1,1,3,5,5,5,2,4,4,1,1,4,3,3,2,2,3,1,1,4,1,1,1,5,4,4,2,2,3,4,3,2,,,0
TRUE,2020-04-27T09:31:05Z,2020-04-27T09:41:58Z,2020-04-27T09:41:58Z,male,18,5,1,Australia,Australian,1,5,3,3,3,3,1,5,2,2,2,3,3,3,2,1,4,2,1,4,3,3,5,4,1,5,1,5,1,5,2,1,1,5,2,3,,,0
TRUE,2020-04-27T10:27:09Z,2020-04-27T10:35:20Z,2020-04-27T10:35:21Z,female,18,5,1,Australia,Caucasian,1,5,2,2,2,2,2,4,2,2,2,4,2,4,2,4,3,5,3,3,4,4,5,4,4,6,1,5,4,4,2,2,4,5,2,2,,,0
TRUE,2020-04-27T11:30:36Z,2020-04-27T11:38:29Z,2020-04-27T11:38:30Z,female,18,3,1,Australia,,1,4,3,4,5,3,2,5,5,5,3,3,4,3,4,4,4,3,4,1,1,3,4,4,3,3,1,5,4,4,1,3,2,5,1,1,One More Light,Linkin Park,0
TRUE,2020-04-27T14:34:25Z,2020-04-27T15:04:38Z,2020-04-27T15:04:39Z,female,18,5,1,Australia,,1,4,4,2,NA,4,2,NA,5,4,4,4,4,4,2,5,5,5,4,3,3,4,3,2,5,5,2,5,4,4,1,4,4,5,2,2,Chicago Diner,Kota the Friend,0.041666666666666664
TRUE,2020-04-27T15:53:44Z,2020-04-27T16:00:30Z,2020-04-27T16:00:31Z,female,17,3,1,Australia,Malaysia,1,4,3,3,4,2,1,5,1,1,1,4,3,1,1,2,5,3,6,4,5,3,4,6,1,6,1,5,3,6,4,2,4,5,3,4,Queen,,0
TRUE,2020-04-27T17:43:27Z,2020-04-27T18:18:56Z,2020-04-27T18:18:57Z,female,18,2,1,Australia,Australian,1,4,4,2,4,4,3,4,4,3,3,4,4,5,4,4,5,5,6,3,3,3,6,5,4,4,1,4,3,5,2,2,4,4,2,4,AUSTN,In Betweenin',0
TRUE,2020-04-28T14:34:47Z,2020-04-28T14:44:28Z,2020-04-28T14:44:28Z,female,19,3,1,Australia,Australian/Korean,3,4,2,2,2,2,1,5,5,5,2,4,3,2,2,4,5,3,4,2,4,4,4,5,3,2,2,4,4,3,1,4,3,5,2,1,Sleeping At Last,Saturn,0
TRUE,2020-04-28T15:03:48Z,2020-04-28T15:14:05Z,2020-04-28T15:14:06Z,female,18,1,1,Australia,Caucasian,1,4,2,2,2,4,2,4,5,5,3,4,3,4,2,3,4,1,3,4,5,4,5,4,5,6,1,5,1,3,1,5,4,4,2,1,Lorde,Ribs,0
TRUE,2020-04-28T15:52:42Z,2020-04-28T15:58:38Z,2020-04-28T15:58:38Z,female,18,3,1,Australia,Caucasion,1,4,4,4,4,4,1,4,1,2,4,4,4,4,3,5,6,4,6,5,5,5,6,3,5,5,1,6,5,4,1,3,4,4,2,3,Dean Lewis,All of them,0
TRUE,2020-04-28T15:47:19Z,2020-04-28T16:02:06Z,2020-04-28T16:02:07Z,male,18,3,1,Australia,Australian/Greek,1,5,4,4,5,5,3,4,4,3,4,5,5,2,1,4,3,1,4,3,3,3,5,4,3,1,1,5,4,4,1,5,2,5,1,1,La Dispute,Rhodonite and Grief,0
TRUE,2020-04-28T15:28:42Z,2020-04-28T16:06:43Z,2020-04-28T16:06:44Z,female,18,5,1,Australia,Sri Lankan,1,4,5,1,1,4,1,4,1,1,5,5,4,5,4,5,5,4,5,4,4,4,5,5,5,4,5,4,1,1,2,4,3,2,4,2,Dean Lewis,Waves,0
TRUE,2020-04-28T16:06:46Z,2020-04-28T16:15:21Z,2020-04-28T16:15:22Z,female,18,3,1,Australia,none,1,4,5,5,5,5,1,5,5,3,2,5,5,1,5,1,5,5,5,2,2,5,4,4,1,6,1,4,6,6,2,1,2,1,5,2,Ariana Grande,,0
TRUE,2020-04-28T16:47:31Z,2020-04-28T17:04:08Z,2020-04-28T17:04:09Z,female,18,3,2,China,Chinese,3,4,4,3,3,3,3,4,3,4,5,5,5,4,4,1,5,4,4,3,3,3,4,4,4,3,1,3,4,3,2,1,3,5,3,2,Yomaez,One more night,0
TRUE,2020-04-28T16:53:47Z,2020-04-28T17:11:26Z,2020-04-28T17:11:26Z,female,19,3,1,Australia,Asian,1,5,4,4,1,2,1,5,5,2,4,4,4,3,3,5,5,5,6,2,4,5,5,6,1,6,1,1,6,6,2,1,1,5,1,4,Taylor Swift,Getaway Car,0
TRUE,2020-04-28T17:17:04Z,2020-04-28T17:27:35Z,2020-04-28T17:27:36Z,male,18,5,1,Australia,Caucasian,1,4,1,2,2,1,1,5,5,1,2,4,4,1,1,4,5,1,1,1,2,3,4,3,1,1,1,1,1,4,4,4,3,5,1,3,Edison Highway - Topic,Place That I Call Home,0
TRUE,2020-04-28T17:46:35Z,2020-04-28T18:01:12Z,2020-04-28T18:01:13Z,female,20,5,1,Australia,Caucasian,1,4,2,4,4,2,3,4,5,1,1,2,2,1,1,6,6,4,5,5,4,5,5,2,6,5,1,5,4,3,4,5,4,5,2,4,Macklemore and Ryan Lewis,Growing up,0
TRUE,2020-04-28T18:04:08Z,2020-04-28T18:13:20Z,2020-04-28T18:13:20Z,male,24,5,2,singapore,Chinese,1,4,2,5,5,5,4,2,3,4,3,4,4,3,3,6,6,4,6,2,4,2,6,2,4,4,2,5,6,6,1,5,5,1,1,4,Stonebank,Stronger,0
TRUE,2020-04-28T18:05:11Z,2020-04-28T18:14:31Z,2020-04-28T18:14:31Z,female,18,5,1,Australia,Caucasian?,1,5,4,2,4,4,2,4,4,2,4,2,2,2,2,4,4,3,3,5,4,4,2,2,4,5,2,5,5,4,2,2,2,4,3,2,Kali uchis,Rush,0
TRUE,2020-04-28T18:06:15Z,2020-04-28T18:15:56Z,2020-04-28T18:15:57Z,female,18,3,1,Australia,Caucasian/European,1,4,2,4,2,4,2,4,3,2,2,4,2,4,4,4,5,4,5,3,2,3,4,4,4,3,1,4,3,2,2,4,4,5,4,2,Claude Debussy,Clair de Lune,0
TRUE,2020-04-28T20:17:09Z,2020-04-28T20:30:50Z,2020-04-28T20:30:50Z,female,17,5,1,New Zealand,New Zealand,1,4,1,1,1,1,1,5,3,1,1,3,3,2,3,5,6,6,6,6,5,6,6,5,4,6,1,3,1,3,3,5,5,4,4,4,Drake,Passionfruit,0
TRUE,2020-04-28T22:29:56Z,2020-04-28T22:43:56Z,2020-04-28T22:43:56Z,female,17,3,1,Australia,South Korean,1,4,4,3,5,5,3,5,3,3,4,5,5,5,4,6,6,6,6,6,4,5,5,4,6,6,1,6,6,6,2,2,5,4,4,4,GOT7,Aura,0
TRUE,2020-04-28T22:51:43Z,2020-04-28T23:02:36Z,2020-04-28T23:02:36Z,female,19,3,1,South Africa,South African/Australian,1,4,4,4,5,4,1,5,5,5,5,5,5,4,3,6,5,3,6,2,4,4,5,3,3,5,1,6,4,4,5,5,5,4,2,5,Bazzi,I Got You,0
TRUE,2020-04-29T08:21:24Z,2020-04-29T08:31:58Z,2020-04-29T08:31:59Z,male,17,3,1,"German, Australia",Australia,1,4,4,2,4,4,2,4,2,2,2,4,4,3,2,4,4,1,5,4,4,4,5,4,5,4,1,4,1,5,2,4,3,4,3,3,,,0
TRUE,2020-04-29T09:56:22Z,2020-04-29T10:24:52Z,2020-04-29T10:24:52Z,female,17,3,1,Australia,Polynesian,1,4,2,2,4,4,2,4,2,2,2,4,4,2,2,4,5,5,5,4,4,5,5,3,3,3,4,3,4,4,2,3,2,2,4,3,Tyler the Creator,911/ Mr Lonely,0
TRUE,2020-04-29T10:21:01Z,2020-04-29T10:32:25Z,2020-04-29T10:32:25Z,female,17,5,1,Australia,Australian,1,4,4,4,5,4,1,3,4,2,2,5,4,5,3,5,5,5,5,4,4,3,3,4,4,5,1,4,5,5,4,5,5,2,4,5,Ed Sheeran,What Do I Know?,0
TRUE,2020-04-29T10:57:58Z,2020-04-29T11:09:46Z,2020-04-29T11:09:46Z,female,18,3,1,Australia,Australian,1,4,5,2,4,5,1,4,4,1,4,5,4,5,2,5,4,4,4,5,5,5,3,3,4,5,1,4,1,4,3,5,5,1,4,2,ABBA,Dancing Queen,0
TRUE,2020-04-29T11:02:33Z,2020-04-29T11:29:22Z,2020-04-29T11:29:22Z,male,19,5,2,Hong Kong,Hong Kong,5,4,3,4,4,4,3,4,3,1,2,2,2,2,5,4,4,1,3,5,6,6,2,3,3,1,1,3,1,1,4,3,2,2,4,4,no particular artist but often songs without lyrics or piano songs,no particular artist but often songs without lyrics or piano songs,0
TRUE,2020-04-29T12:38:56Z,2020-04-29T12:47:10Z,2020-04-29T12:47:11Z,female,18,5,1,Australia,Caucasian,1,4,1,2,2,2,2,4,4,2,2,2,2,2,2,5,5,5,5,4,3,3,4,4,2,6,6,5,4,2,4,5,5,4,5,5,,,0
TRUE,2020-04-29T13:06:23Z,2020-04-29T13:12:19Z,2020-04-29T13:12:20Z,female,18,3,1,Australia/England,Australian,1,5,2,2,3,3,1,4,2,4,1,1,1,1,1,5,5,5,1,1,1,6,2,6,6,6,1,1,6,6,2,4,1,1,2,1,Clint Mansel,Requiem of a Dream,0
TRUE,2020-04-29T13:02:45Z,2020-04-29T13:26:49Z,2020-04-29T13:26:49Z,male,21,5,1,"Singapore, Australia",Asian,1,4,1,5,5,2,1,4,5,1,1,1,1,5,2,5,5,6,3,4,4,1,5,4,5,3,1,6,1,5,4,4,4,4,4,2,Lady Gaga,Paparazzi,0
TRUE,2020-04-29T13:39:16Z,2020-04-29T13:50:33Z,2020-04-29T13:50:33Z,female,18,5,1,Australia,caucasian,4,4,4,3,3,3,2,5,4,3,2,3,2,2,2,5,3,4,6,4,5,4,4,3,5,6,3,6,3,3,4,5,4,2,4,4,,,0
TRUE,2020-04-29T13:59:50Z,2020-04-29T14:09:30Z,2020-04-29T14:09:31Z,female,18,5,1,Australia,indian,1,4,3,4,5,3,2,5,5,2,3,4,4,4,2,6,5,5,4,3,5,5,3,4,3,5,1,3,5,5,2,4,4,4,4,2,hozier,movement,0
TRUE,2020-04-29T14:07:13Z,2020-04-29T14:19:12Z,2020-04-29T14:19:12Z,male,17,3,1,Australia,Australian,6,4,1,3,3,2,3,4,3,3,1,3,2,1,1,6,5,4,4,6,6,1,1,1,1,5,6,1,1,1,5,5,5,1,4,4,HILLSONG United,Oceans,0
TRUE,2020-04-29T14:57:20Z,2020-04-29T15:05:56Z,2020-04-29T15:05:56Z,female,19,5,1,Australia,Australian,1,5,2,4,4,2,2,4,2,2,2,2,2,2,2,5,5,4,5,2,3,3,3,5,5,5,1,5,1,5,2,4,4,5,5,1,Declan McKenna,Brazil,0
TRUE,2020-04-29T15:08:49Z,2020-04-29T15:27:55Z,2020-04-29T15:27:55Z,male,17,2,1,Australia,Vietnamese,4,4,5,4,4,4,3,4,3,3,4,4,4,3,3,1,4,1,4,2,4,5,4,2,3,4,1,1,1,4,2,1,5,5,1,4,ChilledCow,lofi hip hop radio,0
TRUE,2020-04-29T15:36:18Z,2020-04-29T15:46:48Z,2020-04-29T15:46:49Z,male,18,3,1,Australia,Caucasian Australian,1,4,1,1,1,2,1,4,5,1,1,4,2,1,1,5,4,4,5,5,5,4,4,3,4,5,1,5,4,4,4,5,5,4,4,5,,,0
TRUE,2020-04-29T15:36:06Z,2020-04-29T15:48:05Z,2020-04-29T15:48:06Z,female,18,1,1,Australia,Australian,1,4,1,1,3,3,1,5,5,1,1,3,1,1,1,6,4,2,4,3,5,4,4,4,3,5,1,4,1,5,3,4,4,3,3,4,Paradise,Bazzi,0
TRUE,2020-04-29T16:21:36Z,2020-04-29T16:30:53Z,2020-04-29T16:30:53Z,male,19,5,1,Australia,Anglosaxon,1,5,2,4,5,2,1,1,1,1,1,4,1,1,1,6,4,5,4,1,5,4,2,3,4,5,1,5,4,5,4,4,4,5,2,3,Hans Zimmer,Time,0
TRUE,2020-04-29T16:26:02Z,2020-04-29T16:34:30Z,2020-04-29T16:34:31Z,male,17,5,1,"South Africa, Australia",White European,2,4,1,1,1,1,1,1,1,1,1,1,1,1,1,6,6,2,2,5,1,1,1,1,1,1,6,1,1,1,2,5,5,4,4,2,Richard Wagner,Tannhauser Overture,0
TRUE,2020-04-29T16:24:57Z,2020-04-29T16:36:55Z,2020-04-29T16:36:55Z,male,18,5,1,Australia,European Australian,1,4,2,2,4,2,2,5,5,2,2,5,4,2,2,1,6,1,6,1,3,2,2,6,1,1,1,1,1,4,2,3,1,5,2,2,Pink Floyd,Comfortably Numb,0
TRUE,2020-04-29T16:27:54Z,2020-04-29T16:44:14Z,2020-04-29T16:44:14Z,male,18,5,1,Australia,Caucasian,1,4,1,1,2,2,1,4,4,2,1,3,2,1,1,6,5,4,3,3,3,3,4,3,1,4,1,5,3,4,4,4,3,4,4,4,Hans Zimmer,oogway's Legacy,0
TRUE,2020-04-29T17:46:54Z,2020-04-29T17:57:15Z,2020-04-29T17:57:15Z,male,21,5,2,China,Chinese,1,4,3,3,3,3,3,3,3,3,3,4,4,3,4,5,4,3,3,2,3,3,3,3,3,4,2,4,3,3,2,4,3,3,4,4,Gaho,Start Over,0
TRUE,2020-04-29T17:56:37Z,2020-04-29T18:06:03Z,2020-04-29T18:06:03Z,female,17,3,1,Australia,Asian,1,4,3,1,1,5,3,4,4,3,3,4,3,4,4,2,6,4,6,2,1,1,6,6,4,5,1,1,1,6,2,1,2,4,4,2,Joseph Vincent,Can't Take My Eyes Off of You,0
TRUE,2020-04-29T18:09:03Z,2020-04-29T18:16:32Z,2020-04-29T18:16:32Z,female,18,3,1,Austrlia,Christian,1,5,2,2,2,2,1,2,3,2,2,3,2,2,1,3,2,5,2,1,5,5,2,2,1,6,1,3,4,1,2,2,2,2,3,1,,,0
TRUE,2020-04-29T18:20:54Z,2020-04-29T18:32:58Z,2020-04-29T18:32:58Z,female,17,5,1,Australia,Caucasian,1,4,2,3,3,3,1,5,4,4,2,4,3,2,2,5,5,4,4,4,5,5,5,4,4,4,1,4,1,1,3,3,4,4,4,4,,,0
TRUE,2020-04-29T18:33:21Z,2020-04-29T18:49:00Z,2020-04-29T18:49:00Z,male,18,3,1,China,Chinese,5,4,4,2,2,2,2,4,3,3,3,4,4,2,2,1,4,1,1,5,6,6,5,6,1,1,5,5,5,6,3,3,4,3,3,3,Latroit/Lliam,Someday,0
TRUE,2020-04-29T19:31:45Z,2020-04-29T19:46:39Z,2020-04-29T19:46:40Z,female,21,5,1,Australia,Australian,3,4,2,4,2,1,1,5,5,5,1,5,5,3,2,4,4,5,3,3,4,5,3,3,4,3,1,5,3,2,1,2,4,5,1,1,Chris Stapleton,Tennessee Whiskey,0
TRUE,2020-04-29T19:40:18Z,2020-04-29T19:49:33Z,2020-04-29T19:49:34Z,female,44,5,1,Canada,Caucasian,1,4,2,5,3,5,3,5,5,5,4,5,4,4,3,6,5,4,5,4,2,5,5,6,6,4,1,5,1,4,3,4,4,5,2,3,,,0
TRUE,2020-04-29T21:26:03Z,2020-04-29T21:37:37Z,2020-04-29T21:37:37Z,female,18,5,1,Australia,Australian,1,4,5,2,3,3,4,5,5,4,4,4,4,5,3,5,4,5,3,3,2,2,3,3,3,4,1,5,5,5,4,4,2,5,2,1,Tame impala,Breathe Deeper,0
TRUE,2020-04-29T21:27:03Z,2020-04-29T21:44:51Z,2020-04-29T21:44:51Z,female,18,5,1,Australian,Indonesian,1,4,5,3,4,3,1,4,1,1,3,4,4,3,4,6,6,4,6,4,5,5,4,6,4,4,4,5,6,3,4,4,4,5,4,4,KESHI,Atlas,0
TRUE,2020-04-29T21:31:22Z,2020-04-29T21:50:02Z,2020-04-29T21:50:02Z,female,17,5,1,Australia,Australian,1,4,4,1,4,5,3,5,3,3,4,5,5,4,4,1,6,5,6,4,4,5,5,4,5,5,1,5,1,4,1,2,2,5,1,2,Sleeping at last,saturn,0
TRUE,2020-04-30T06:37:05Z,2020-04-30T06:49:50Z,2020-04-30T06:49:51Z,female,31,3,1,Australia,Chinese,1,4,4,5,3,4,3,4,4,3,1,3,2,5,2,5,5,3,4,3,5,5,4,4,6,5,1,1,4,1,4,4,5,3,4,5,Transformer soundtrack,Sentinel Prime,0
TRUE,2020-04-30T08:34:21Z,2020-04-30T08:41:30Z,2020-04-30T08:41:31Z,female,20,5,1,Australia,Australian,1,4,4,4,4,4,2,4,4,2,4,5,4,5,1,5,4,5,5,5,6,6,5,6,6,6,1,6,5,6,4,5,5,2,4,4,,,0
TRUE,2020-04-30T09:09:31Z,2020-04-30T09:10:01Z,2020-04-30T09:10:01Z,prefer not to say,1,5,2,Test Data,Test Data,6,6,5,5,5,5,5,5,5,5,5,5,5,5,5,6,6,6,6,6,6,6,6,6,6,6,6,6,6,6,5,5,5,5,5,5,Test Data,Test Data,0
TRUE,2020-04-30T08:56:38Z,2020-04-30T09:10:42Z,2020-04-30T09:10:42Z,female,18,3,1,Australia,Anglo-Saxon,1,5,4,2,5,4,1,5,5,2,4,4,3,4,3,6,5,4,4,5,6,6,2,4,5,6,4,4,4,4,4,5,5,1,4,4,Samuel Barber,Angus Dei,0
TRUE,2020-04-30T09:10:53Z,2020-04-30T09:25:06Z,2020-04-30T09:25:07Z,female,18,3,1,Australia,White,1,4,4,4,5,5,4,5,5,5,4,4,4,2,2,5,3,4,1,1,1,4,3,5,1,2,1,3,6,5,1,5,4,1,3,2,,,0
TRUE,2020-04-30T10:33:50Z,2020-04-30T10:43:42Z,2020-04-30T10:43:43Z,female,19,5,1,Australia,No cultural or ethnic affiliations,3,6,4,4,4,4,3,2,2,2,4,4,4,2,2,6,5,5,4,5,4,4,4,5,1,4,1,5,1,1,4,5,4,4,4,4,Paramore,Proof,0
TRUE,2020-04-30T10:20:41Z,2020-04-30T10:44:48Z,2020-04-30T10:44:48Z,female,18,3,1,Australia,Australian,1,4,3,2,2,2,2,4,4,2,2,2,2,2,2,6,5,5,5,2,4,4,5,4,2,5,1,5,5,5,4,5,4,4,3,5,Shawn Mendes,Understand,0
TRUE,2020-04-30T10:48:41Z,2020-04-30T10:57:28Z,2020-04-30T10:57:28Z,female,18,3,1,Australia,Australian,3,4,2,2,2,2,2,4,2,2,2,2,2,4,2,5,5,1,5,5,5,5,5,4,5,6,1,5,3,3,1,5,5,5,2,1,,,0
TRUE,2020-04-30T11:25:17Z,2020-04-30T11:36:50Z,2020-04-30T11:36:51Z,male,17,5,1,Australia,Chinese,1,4,4,4,5,4,4,5,4,2,3,5,4,3,2,6,4,4,2,5,5,5,2,2,1,1,1,1,1,1,2,4,2,4,3,4,Alexandra Savior,Soft Currents,0
TRUE,2020-04-30T12:01:32Z,2020-04-30T12:13:20Z,2020-04-30T12:13:21Z,female,18,5,1,Australia and Taiwan,Asian,2,4,3,3,3,4,2,4,3,3,3,5,5,3,3,1,4,3,5,2,4,1,1,4,1,1,1,4,5,5,2,2,3,4,4,3,Lemon,Kenshi Yonezu,0
TRUE,2020-04-30T12:10:44Z,2020-04-30T12:19:38Z,2020-04-30T12:19:39Z,female,18,3,1,Australian citizenship,Asian,1,4,2,2,2,2,2,5,5,5,2,4,3,2,2,1,6,6,6,4,5,5,5,6,6,5,1,6,6,6,1,1,5,5,2,1,Joe Hisaishi and Roberto Bravo,Merry-Go Round of Life,0
TRUE,2020-04-30T12:07:07Z,2020-04-30T12:22:39Z,2020-04-30T12:22:39Z,female,18,3,1,Australia,Australian,1,4,1,1,4,3,1,3,1,2,1,2,1,1,1,5,4,3,6,3,2,2,4,5,3,3,1,5,1,1,3,4,4,4,4,3,"Soldier, Poet, King",The Oh Hellos,0
TRUE,2020-04-30T12:26:38Z,2020-04-30T12:40:17Z,2020-04-30T12:40:17Z,female,18,5,1,Australia,Australian,4,4,2,4,4,4,4,5,5,4,2,4,4,5,1,5,6,3,6,5,5,5,5,2,5,5,4,6,6,5,2,2,2,4,2,3,,,0
TRUE,2020-04-30T12:55:18Z,2020-04-30T13:05:05Z,2020-04-30T13:05:06Z,female,18,5,1,Australia,Australian,1,5,4,3,4,4,1,4,2,2,4,5,4,5,4,6,5,4,5,2,4,4,5,4,4,6,1,5,1,4,2,5,4,3,3,2,,,0
TRUE,2020-04-30T13:18:22Z,2020-04-30T13:28:20Z,2020-04-30T13:28:20Z,female,21,5,1,Hong Kong,Chinese,1,4,4,4,4,4,3,4,3,3,4,4,4,2,4,1,5,1,4,1,1,1,3,5,1,1,1,1,1,5,4,3,4,2,4,4,Yiruma,River flows in you,0
TRUE,2020-04-30T13:55:49Z,2020-04-30T14:01:12Z,2020-04-30T14:01:12Z,male,18,3,2,CHINA,CHINESE,5,4,5,5,5,5,5,4,4,2,4,4,3,3,3,5,2,5,3,4,5,5,4,4,3,2,3,4,3,3,1,3,2,4,2,2,Lady Gaga,Just Dance,0
TRUE,2020-04-30T13:55:58Z,2020-04-30T14:04:28Z,2020-04-30T14:04:28Z,female,21,5,2,Brunei,Eurasian,2,4,3,5,5,5,5,5,2,4,2,3,3,3,4,6,6,4,6,4,5,5,5,5,6,6,4,5,4,6,1,4,4,4,3,2,Parquet Courts,Mardi Gras Beads,0
TRUE,2020-04-30T14:22:07Z,2020-04-30T14:27:19Z,2020-04-30T14:27:19Z,female,18,5,2,china,china,3,4,3,3,3,3,3,3,3,3,3,3,3,3,3,5,5,5,5,5,5,5,5,5,5,5,5,5,5,5,4,4,4,4,4,4,talar swift,my lover,0
TRUE,2020-04-30T14:32:31Z,2020-04-30T14:45:41Z,2020-04-30T14:45:42Z,female,19,5,2,China,Han,1,4,4,4,4,4,4,5,5,5,5,5,5,5,5,4,6,2,3,3,3,3,4,4,5,3,1,4,5,6,2,2,3,4,4,4,Jay,Say not to cry,0
TRUE,2020-04-30T15:32:18Z,2020-04-30T15:41:22Z,2020-04-30T15:41:22Z,female,18,5,1,Australia,Caucasian,1,4,4,5,5,4,2,4,2,5,3,4,3,5,2,5,4,5,5,2,1,4,3,4,1,4,1,5,1,5,3,5,4,5,3,3,Gang of Youths,"The Deepest Sighs, the Frankest Shadows",0
TRUE,2020-04-30T15:31:58Z,2020-04-30T15:42:27Z,2020-04-30T15:42:27Z,female,21,3,1,Australia,,1,4,1,4,3,3,4,2,5,5,2,5,5,5,5,6,6,3,4,5,6,4,1,3,1,1,1,1,6,4,2,5,5,5,4,4,Jorja Smith,Teenage Fanatasy,0
TRUE,2020-04-30T16:56:03Z,2020-04-30T17:14:26Z,2020-04-30T17:14:26Z,female,18,3,1,Australia,Australian and Papua New Guinean,3,4,3,4,4,4,2,5,5,3,4,5,5,2,2,5,6,5,5,6,5,5,5,5,4,6,1,4,4,4,2,4,3,4,4,2,Demi Lovato,I love me,0
TRUE,2020-04-30T17:17:25Z,2020-04-30T17:27:20Z,2020-04-30T17:27:21Z,female,23,5,1,Australia,Indigenous Australian,1,4,5,3,3,5,3,4,5,5,5,5,5,5,3,6,3,3,3,6,6,6,5,4,6,6,1,5,5,5,4,4,5,2,3,3,sigrid,don't kill my vibe,0
TRUE,2020-04-30T17:43:07Z,2020-04-30T17:51:16Z,2020-04-30T17:51:17Z,female,17,5,1,Australia,Australian,1,5,4,4,4,3,3,5,3,2,3,5,4,3,4,3,4,4,5,5,2,3,4,5,6,5,1,6,1,6,2,4,4,4,5,2,Lewis Capaldi,Bruises,0
TRUE,2020-04-30T20:54:30Z,2020-04-30T21:01:56Z,2020-04-30T21:01:57Z,female,18,3,1,Australia,Asian/Caucasian,6,4,4,4,4,4,1,4,3,4,4,4,4,4,4,4,5,4,6,4,5,4,4,3,3,4,2,4,4,5,2,3,3,3,3,2,Khalid,Bad Luck,0
TRUE,2020-04-30T21:59:08Z,2020-04-30T22:23:49Z,2020-04-30T22:23:49Z,female,20,5,2,Brunei,Malay,3,4,4,4,2,4,3,5,5,3,4,1,4,2,2,5,6,6,6,5,1,1,6,5,4,4,6,5,6,1,2,1,1,2,1,4,Natalie Taylor,Surrender,0
TRUE,2020-04-30T22:29:06Z,2020-04-30T22:36:31Z,2020-04-30T22:36:32Z,female,18,5,1,Australian,Indonesian,1,4,3,3,4,2,1,4,2,1,1,4,4,3,4,4,6,4,6,5,5,5,4,6,4,5,4,6,6,6,4,4,3,4,3,2,Keshi,Atlas,0
TRUE,2020-04-30T22:35:53Z,2020-04-30T22:47:11Z,2020-04-30T22:47:11Z,female,17,3,1,Australia,Asian,1,4,5,5,5,5,1,5,5,4,5,5,5,5,5,3,1,3,6,2,1,1,6,6,6,4,1,3,6,6,4,4,4,4,4,3,,,0
TRUE,2020-05-01T00:44:17Z,2020-05-01T01:06:21Z,2020-05-01T01:06:22Z,female,19,5,2,China,no,5,4,3,1,1,3,3,5,3,1,4,3,3,1,1,4,6,1,5,5,4,3,4,1,2,4,3,1,5,6,5,4,4,4,4,4,WayV,Let me love you,0
TRUE,2020-05-01T01:48:38Z,2020-05-01T01:58:57Z,2020-05-01T01:58:57Z,female,22,3,1,Australia,Australian,3,4,1,5,5,3,1,5,5,2,2,2,2,2,2,5,6,6,4,4,4,4,1,4,3,5,1,1,1,4,1,1,1,2,4,2,Halsey,Colors,0
FALSE,2020-04-24T08:18:06Z,2020-04-24T08:22:01Z,2020-05-01T08:22:02Z,male,27,1,1,Indian,Indian,1,5,NA,NA,NA,NA,NA,NA,NA,NA,NA,NA,NA,NA,NA,NA,NA,NA,NA,NA,NA,NA,NA,NA,NA,NA,NA,NA,NA,NA,NA,NA,NA,NA,NA,NA,,,0.7083333333333334
FALSE,2020-04-24T09:31:56Z,2020-04-24T09:32:14Z,2020-05-01T09:32:27Z,male,18,1,1,,,NA,NA,NA,NA,NA,NA,NA,NA,NA,NA,NA,NA,NA,NA,NA,NA,NA,NA,NA,NA,NA,NA,NA,NA,NA,NA,NA,NA,NA,NA,NA,NA,NA,NA,NA,NA,,,0.75
TRUE,2020-05-01T12:14:33Z,2020-05-01T12:25:58Z,2020-05-01T12:25:58Z,female,18,5,1,Australia,South East Asian/Australian,1,6,3,3,4,4,1,4,2,2,4,4,4,2,2,5,4,4,6,4,3,3,4,4,4,4,4,5,5,4,2,4,3,2,3,4,Kiss the Rain,Yiruma,0
TRUE,2020-05-01T13:52:35Z,2020-05-01T14:09:06Z,2020-05-01T14:09:07Z,female,18,3,1,Australia,Australian,1,6,2,2,2,2,1,4,4,2,2,2,2,2,2,5,5,4,4,4,4,1,1,4,3,5,5,5,1,1,4,4,4,2,4,2,Third Day,When The Rain Comes,0
TRUE,2020-05-01T13:46:49Z,2020-05-01T14:23:05Z,2020-05-01T14:23:06Z,female,21,5,1,Australia,Australian,3,5,1,4,2,1,1,5,5,3,1,5,3,1,1,4,5,6,6,4,4,5,5,4,6,5,1,6,4,4,2,2,2,2,2,2,,,0
TRUE,2020-05-01T15:47:41Z,2020-05-01T16:09:36Z,2020-05-01T16:09:36Z,female,21,3,2,China,Chinese,6,4,4,3,3,3,3,4,2,5,4,4,3,4,3,2,4,4,5,3,5,4,3,4,3,1,1,4,4,1,2,2,4,5,3,2,Andrew Lloyd Webber,Memory,0
TRUE,2020-05-01T17:36:42Z,2020-05-01T17:51:15Z,2020-05-01T17:51:16Z,female,19,5,1,Australia and Ireland,Caucasian,1,5,3,4,4,2,1,4,4,2,3,3,3,5,2,5,5,5,4,3,4,4,5,4,4,5,1,5,5,4,3,4,2,3,4,3,dermot kennedy,what have I done,0
TRUE,2020-05-01T19:33:01Z,2020-05-01T19:43:03Z,2020-05-01T19:43:03Z,female,19,3,1,"Australia, Great Britain",Caucasian,1,4,1,4,5,2,4,5,4,5,2,4,4,3,2,4,5,2,4,2,2,2,3,5,3,4,3,6,4,3,2,2,3,5,1,2,Marconi Union,Weightless,0
TRUE,2020-05-01T20:23:55Z,2020-05-01T20:33:19Z,2020-05-01T20:33:20Z,male,24,3,1,Australia,Australian,1,4,1,1,1,1,3,1,1,1,1,1,1,1,2,4,2,2,2,2,4,1,2,6,4,5,1,1,1,1,2,5,4,1,4,1,,,0
TRUE,2020-05-02T10:00:35Z,2020-05-02T10:13:22Z,2020-05-02T10:13:23Z,female,17,5,1,Australia and UK,White,1,4,1,4,5,1,1,5,1,1,1,1,1,1,1,5,6,5,1,1,3,3,5,2,1,4,1,1,4,3,1,5,1,2,5,3,,,0
TRUE,2020-05-02T11:36:50Z,2020-05-02T11:56:50Z,2020-05-02T11:56:50Z,female,21,5,1,Australia,East asia,1,4,3,4,3,4,2,5,5,4,3,4,3,3,4,1,5,4,3,3,4,4,5,4,1,5,6,5,1,2,2,1,3,5,1,2,,,0
TRUE,2020-05-02T14:35:05Z,2020-05-02T14:48:23Z,2020-05-02T14:48:23Z,female,17,3,1,Australia,,1,5,2,1,2,2,1,5,1,1,1,5,4,4,4,4,6,5,4,4,4,5,5,4,6,4,1,4,1,4,4,1,2,4,2,2,,,0
TRUE,2020-05-02T20:34:41Z,2020-05-02T20:42:08Z,2020-05-02T20:42:09Z,male,23,3,2,Singapore,Chinese,1,4,3,4,4,4,5,4,4,1,3,5,5,2,4,6,6,2,3,3,5,5,5,5,5,4,1,1,4,4,4,5,3,2,2,4,Chill with Taiki,Sleepy Lofi Vibes,0
TRUE,2020-05-02T01:02:34Z,2020-05-03T03:14:54Z,2020-05-03T03:14:55Z,female,19,5,2,Taiwan and Republic of Korea,Korean / Chinese,5,4,4,4,4,4,2,4,3,3,5,5,5,4,3,5,5,6,4,3,4,5,6,4,3,4,1,4,4,3,2,5,2,4,3,4,Bruno Major,Easily,0
TRUE,2020-05-03T10:59:00Z,2020-05-03T11:15:42Z,2020-05-03T11:15:43Z,female,17,3,1,Australia,None,1,5,4,3,4,4,2,5,4,2,4,4,4,4,4,4,5,6,5,3,4,4,3,6,3,6,1,4,5,4,2,4,3,4,4,3,Rex Orange County,Best friend,0
TRUE,2020-05-03T12:33:49Z,2020-05-03T12:50:30Z,2020-05-03T12:50:31Z,female,22,5,1,Australia,Caucasian,1,4,3,4,3,3,1,3,3,3,3,4,3,4,3,5,5,4,4,4,5,5,4,5,5,5,1,4,3,4,3,4,4,4,4,3,Harry Styles,"Sunflower, Vol. 6",0
TRUE,2020-05-03T14:40:20Z,2020-05-03T14:51:37Z,2020-05-03T14:51:37Z,female,18,3,1,Australia,Chinese,1,4,5,5,5,5,3,5,3,3,4,5,4,5,5,4,6,3,3,4,5,5,3,4,4,5,1,5,4,4,3,4,2,5,3,2,stray kids,19,0
TRUE,2020-05-03T15:00:15Z,2020-05-03T15:10:36Z,2020-05-03T15:10:37Z,female,18,3,1,Australia,Australian,1,6,5,4,5,5,4,5,5,5,4,5,4,4,2,4,5,1,5,6,6,6,5,3,1,4,1,4,5,6,2,4,4,5,4,3,Billie Eilish,When We All Fall Asleep Where Do We Go (Album),0
TRUE,2020-05-03T15:02:37Z,2020-05-03T15:24:04Z,2020-05-03T15:24:05Z,female,19,3,2,China,none,3,4,3,3,2,2,3,4,3,2,4,4,4,2,2,4,6,4,4,1,4,3,4,2,1,4,3,4,4,4,5,2,4,2,4,4,WHAT A WONDERFUL WORLD,LOUIS ARMSTRONG,0
TRUE,2020-05-03T16:57:40Z,2020-05-03T17:11:00Z,2020-05-03T17:11:00Z,female,19,3,1,south africa,caucasain,1,4,3,5,5,2,3,4,2,2,2,4,2,4,2,6,4,6,4,4,3,4,2,5,4,6,1,4,4,3,2,5,3,5,3,2,rex orange county,best friend,0
TRUE,2020-05-03T17:17:16Z,2020-05-03T17:30:07Z,2020-05-03T17:30:07Z,female,18,3,1,Australia,caucasian,3,4,4,4,4,4,3,4,3,3,4,4,4,4,3,4,4,3,6,3,4,4,3,5,5,4,1,5,1,3,4,3,3,4,3,3,Khalid,twenty-one,0
FALSE,2020-04-26T20:13:27Z,2020-04-26T20:13:49Z,2020-05-03T20:14:05Z,female,18,4,1,,,NA,NA,NA,NA,NA,NA,NA,NA,NA,NA,NA,NA,NA,NA,NA,NA,NA,NA,NA,NA,NA,NA,NA,NA,NA,NA,NA,NA,NA,NA,NA,NA,NA,NA,NA,NA,,,0.75
FALSE,2020-04-26T20:32:28Z,2020-04-26T20:48:55Z,2020-05-03T20:49:25Z,female,18,5,1,Australia,Australia,1,4,2,4,4,4,4,5,5,4,1,1,4,4,4,6,6,6,6,3,6,4,4,6,1,6,1,6,3,4,NA,NA,NA,NA,NA,NA,Harry Styles,Golden,0.125
FALSE,2020-04-26T20:46:28Z,2020-04-26T20:53:15Z,2020-05-03T20:54:09Z,female,19,5,1,"Australia, United Kingdom",Caucasian,1,6,4,1,1,4,2,3,4,1,5,5,4,2,2,1,4,1,1,2,2,2,2,2,5,2,1,2,5,1,NA,NA,NA,NA,NA,NA,,,0.125
FALSE,2020-04-26T20:56:24Z,2020-04-26T20:57:23Z,2020-05-03T20:57:33Z,female,18,5,1,Here,Prefer not to say,1,4,NA,NA,NA,NA,NA,NA,NA,NA,NA,NA,NA,NA,NA,NA,NA,NA,NA,NA,NA,NA,NA,NA,NA,NA,NA,NA,NA,NA,NA,NA,NA,NA,NA,NA,,,0.7083333333333334
FALSE,2020-04-26T21:21:53Z,2020-04-26T21:22:49Z,2020-05-03T21:23:18Z,female,17,5,1,,,NA,NA,NA,NA,NA,NA,NA,NA,NA,NA,NA,NA,NA,NA,NA,NA,NA,NA,NA,NA,NA,NA,NA,NA,NA,NA,NA,NA,NA,NA,NA,NA,NA,NA,NA,NA,,,0.75
FALSE,2020-04-26T21:19:04Z,2020-04-26T21:23:27Z,2020-05-03T21:23:28Z,female,18,5,1,Australia,Greek,1,6,2,1,4,4,1,5,5,2,2,2,2,2,2,NA,NA,NA,NA,NA,NA,NA,NA,NA,NA,NA,NA,NA,NA,NA,NA,NA,NA,NA,NA,NA,,,0.4375
FALSE,2020-04-26T21:32:11Z,2020-04-26T21:32:30Z,2020-05-03T21:32:57Z,female,18,1,1,,,NA,NA,NA,NA,NA,NA,NA,NA,NA,NA,NA,NA,NA,NA,NA,NA,NA,NA,NA,NA,NA,NA,NA,NA,NA,NA,NA,NA,NA,NA,NA,NA,NA,NA,NA,NA,,,0.75
FALSE,2020-04-26T21:38:05Z,2020-04-26T21:45:08Z,2020-05-03T21:45:19Z,female,19,3,2,"Singapore, Hong Kong",Chinese,1,4,4,1,5,4,3,1,3,3,1,1,3,1,1,1,1,1,5,1,1,1,1,1,1,1,1,1,4,4,NA,NA,NA,NA,NA,NA,,,0.125
FALSE,2020-04-27T00:05:23Z,2020-04-27T00:09:15Z,2020-05-04T00:09:16Z,male,26,5,2,Bangladesh,Asian,5,4,5,4,4,5,1,2,2,3,4,4,4,3,4,NA,NA,NA,NA,NA,NA,NA,NA,NA,NA,NA,NA,NA,NA,NA,NA,NA,NA,NA,NA,NA,,,0.4375
TRUE,2020-05-04T07:39:22Z,2020-05-04T07:48:51Z,2020-05-04T07:48:51Z,female,21,5,2,USA,Caucasian and Jewish,1,4,4,5,4,4,3,5,3,4,3,4,3,4,4,4,4,5,6,2,3,4,5,5,4,6,1,5,4,5,5,3,4,5,3,5,Florist,,0
FALSE,2020-04-27T08:05:45Z,2020-04-27T08:07:27Z,2020-05-04T08:07:35Z,female,18,5,1,,,NA,NA,NA,NA,NA,NA,NA,NA,NA,NA,NA,NA,NA,NA,NA,NA,NA,NA,NA,NA,NA,NA,NA,NA,NA,NA,NA,NA,NA,NA,NA,NA,NA,NA,NA,NA,,,0.75
FALSE,2020-04-27T11:08:18Z,2020-04-27T11:13:55Z,2020-05-04T11:14:00Z,female,18,1,1,Australia,Australian,1,4,4,4,4,4,1,4,5,4,1,3,3,3,3,5,5,3,6,3,2,4,6,6,6,4,1,4,4,4,NA,NA,NA,NA,NA,NA,Billie eilish,Any song,0.125
TRUE,2020-05-04T12:05:56Z,2020-05-04T12:08:30Z,2020-05-04T12:08:31Z,male,29,5,1,Aust,??,3,4,3,2,3,3,3,3,3,2,3,3,3,3,3,3,3,4,3,3,3,4,3,4,3,3,4,3,3,3,3,3,4,3,3,3,,,0
TRUE,2020-05-04T12:54:21Z,2020-05-04T13:10:41Z,2020-05-04T13:10:41Z,female,32,3,2,Singapore,Indian,5,4,4,4,4,4,1,4,4,5,4,4,4,4,2,5,6,4,5,3,5,5,4,3,6,5,2,5,3,4,4,3,4,4,4,5,"Dezy Walls, Barry Walls",Stress Management Song,0
TRUE,2020-05-04T13:53:27Z,2020-05-04T14:02:58Z,2020-05-04T14:02:59Z,female,18,5,1,Australia and England,Australian,1,4,1,1,4,4,3,4,3,3,1,1,1,1,1,6,5,4,5,5,6,4,5,5,3,6,6,5,2,3,2,5,4,5,2,2,Hillsong united,Another in the Fire,0
TRUE,2020-05-04T13:53:47Z,2020-05-04T14:11:22Z,2020-05-04T14:11:22Z,female,18,3,1,Australia,Australian,1,4,2,2,2,4,3,4,3,3,1,2,2,4,2,6,5,6,3,2,5,5,3,4,4,6,1,4,4,4,1,4,4,4,4,2,Cheech & Chong,Marijuana,0
TRUE,2020-05-04T14:39:19Z,2020-05-04T14:56:18Z,2020-05-04T14:56:19Z,female,19,3,1,Brazil and Australia,Latin American,1,4,5,5,5,5,2,5,5,2,5,5,5,4,2,4,5,4,5,5,5,5,3,2,4,4,1,4,6,6,4,2,3,4,2,3,Yael Naim,New soul,0
TRUE,2020-05-04T18:00:41Z,2020-05-04T18:18:05Z,2020-05-04T18:18:05Z,female,18,5,1,Australia and Italy,Italian,1,5,1,1,4,4,1,4,2,2,2,4,4,2,2,6,4,3,5,5,6,5,2,1,5,5,6,6,1,1,3,5,4,3,4,3,The foundations,Build me up buttercup,0
TRUE,2020-05-05T01:45:53Z,2020-05-05T02:05:52Z,2020-05-05T02:05:52Z,female,18,5,1,Australia and United States of America,Caucasian,2,4,3,2,2,2,1,1,1,1,2,2,2,3,2,4,5,5,5,3,3,1,2,2,4,4,1,4,5,5,4,1,2,3,3,2,AJR,Burn The House Down,0
TRUE,2020-05-05T07:51:54Z,2020-05-05T09:11:53Z,2020-05-05T09:11:53Z,female,17,5,1,Australia,Caucasian Australian (7th gen both sides),1,4,3,2,3,3,5,5,5,4,4,5,4,4,3,4,6,3,4,4,3,2,4,5,3,1,1,1,1,1,2,4,4,5,3,3,Adam Jensen,Street Fight,0
TRUE,2020-05-05T14:45:07Z,2020-05-05T15:02:18Z,2020-05-05T15:02:19Z,female,17,5,1,Australia,Australian,1,4,4,3,5,3,3,4,5,5,4,4,4,2,3,6,5,4,3,2,2,2,3,4,4,5,4,5,5,4,2,4,4,4,2,2,The Neighbourhood,#Icanteven,0
TRUE,2020-05-05T16:46:58Z,2020-05-05T16:54:58Z,2020-05-05T16:54:58Z,male,18,3,2,Malaysia,Malaysian Chinese,5,4,3,2,3,2,2,3,2,2,2,2,4,2,3,1,5,3,6,2,3,4,4,4,1,3,4,4,6,4,3,2,1,5,1,2,Total Mayhem Games,Forbidden Rites,0
TRUE,2020-05-05T16:51:30Z,2020-05-05T17:03:03Z,2020-05-05T17:03:04Z,female,18,3,1,Australia,European,1,4,3,2,2,2,2,4,2,2,3,4,4,4,2,1,4,1,5,3,4,3,4,5,1,5,1,3,4,4,2,2,2,4,3,2,Matthew Wilder,Break My Stride,0
TRUE,2020-05-05T17:06:24Z,2020-05-05T17:18:13Z,2020-05-05T17:18:14Z,female,18,3,1,Australia,Australian,1,4,2,2,5,2,3,3,5,5,2,3,3,4,3,4,5,3,5,4,4,4,3,2,1,4,3,5,4,3,4,4,2,2,3,2,Lizzo,Good as Hell,0
TRUE,2020-05-05T17:17:35Z,2020-05-05T17:29:53Z,2020-05-05T17:29:53Z,male,17,3,1,Australia,Indian,1,6,1,2,2,4,1,4,2,2,1,4,4,2,3,1,6,1,4,5,4,4,4,2,6,3,1,4,4,5,2,2,2,1,1,4,Andy Grammer,Keep your head up,0
TRUE,2020-05-05T21:14:08Z,2020-05-05T21:32:17Z,2020-05-05T21:32:18Z,female,20,5,1,Australia,Asian,1,4,4,1,1,2,2,3,3,2,4,4,4,4,2,5,4,3,5,3,3,4,2,4,4,3,1,4,1,1,2,4,3,2,4,1,DJ Okawari,Flower Dance,0
TRUE,2020-05-05T20:56:08Z,2020-05-05T21:34:20Z,2020-05-05T21:34:21Z,female,18,3,1,Australia,Australian,1,4,4,5,4,4,2,5,5,5,5,5,4,4,2,6,6,3,4,5,6,6,6,6,1,2,1,2,2,3,4,5,4,4,2,1,Jeremy Zucker,Not your friend,0
TRUE,2020-05-05T22:56:48Z,2020-05-05T23:08:28Z,2020-05-05T23:08:29Z,female,20,5,2,Singaporean,Chinese,1,4,5,4,5,5,4,5,3,3,4,5,4,4,4,5,4,3,4,4,4,4,4,4,4,4,5,5,5,5,1,5,4,3,2,3,Jay Chou,ä¸é¨çå£°é³,0
TRUE,2020-05-06T13:26:32Z,2020-05-06T13:42:19Z,2020-05-06T13:42:20Z,male,39,3,1,Australia,Asian,1,4,4,4,1,4,3,4,4,3,4,2,4,5,4,3,4,4,3,5,5,3,4,5,5,5,1,4,1,1,4,4,4,4,4,4,,,0
FALSE,2020-04-29T13:48:11Z,2020-04-29T13:51:02Z,2020-05-06T13:51:11Z,female,18,5,1,New Zealand,Caucasian,4,5,5,4,5,4,2,5,4,2,4,5,5,4,4,NA,NA,NA,NA,NA,NA,NA,NA,NA,NA,NA,NA,NA,NA,NA,NA,NA,NA,NA,NA,NA,,,0.4375
TRUE,2020-05-06T16:40:11Z,2020-05-06T16:48:35Z,2020-05-06T16:48:36Z,female,20,3,1,Australia and United Kingdom,White caucasian,3,4,1,4,4,4,2,2,4,2,1,3,2,2,2,6,6,2,1,4,4,4,3,2,1,6,1,3,4,4,2,4,4,4,5,3,Petit Biscuit,Sunset Lover,0
TRUE,2020-05-06T21:28:27Z,2020-05-06T21:36:14Z,2020-05-06T21:36:15Z,male,19,3,1,Australia,Caucasian,1,4,2,4,4,4,2,4,4,4,2,2,2,3,2,5,5,4,6,5,5,5,4,5,4,5,3,5,5,5,2,4,2,5,2,4,Ben Howard,Old Pine,0
TRUE,2020-05-06T21:16:20Z,2020-05-06T21:41:11Z,2020-05-06T21:41:12Z,female,19,5,1,Australia,Caucausian,4,4,2,3,4,2,3,4,5,5,2,4,4,4,2,4,6,1,5,4,2,2,6,5,3,1,1,6,3,5,2,4,2,4,4,4,LANY,13,0
FALSE,2020-04-29T21:47:34Z,2020-04-29T21:48:17Z,2020-05-06T21:48:18Z,female,18,5,1,Australian,Indonesian,1,4,NA,NA,NA,NA,NA,NA,NA,NA,NA,NA,NA,NA,NA,NA,NA,NA,NA,NA,NA,NA,NA,NA,NA,NA,NA,NA,NA,NA,NA,NA,NA,NA,NA,NA,,,0.7083333333333334
TRUE,2020-05-06T22:18:55Z,2020-05-06T22:29:02Z,2020-05-06T22:29:02Z,female,26,5,2,Hong Kong,Hong Kong- Chinese,2,5,4,5,5,5,5,5,5,5,5,5,5,5,5,6,6,4,5,5,6,6,3,4,5,6,5,6,6,6,4,5,5,3,2,3,Debussy,Clair de lune,0
TRUE,2020-05-06T19:11:19Z,2020-05-06T22:34:06Z,2020-05-06T22:34:07Z,female,17,5,1,Australia,Caucasian,1,4,4,4,4,3,1,4,4,2,4,5,4,2,4,6,5,5,4,4,4,4,3,3,3,4,1,1,1,3,2,4,4,5,2,4,Kim Churchill,After the Sun,0
TRUE,2020-05-07T12:59:35Z,2020-05-07T13:12:41Z,2020-05-07T13:12:42Z,female,18,3,1,Australia,Caucasian,1,4,4,2,2,2,2,4,4,3,3,4,3,2,2,5,6,4,5,5,6,5,4,5,5,5,6,6,4,3,4,2,2,2,4,3,,,0
FALSE,2020-04-30T18:10:03Z,2020-04-30T18:10:41Z,2020-05-07T18:10:53Z,male,17,5,1,,,NA,NA,NA,NA,NA,NA,NA,NA,NA,NA,NA,NA,NA,NA,NA,NA,NA,NA,NA,NA,NA,NA,NA,NA,NA,NA,NA,NA,NA,NA,NA,NA,NA,NA,NA,NA,,,0.75
TRUE,2020-05-08T06:32:49Z,2020-05-08T06:39:22Z,2020-05-08T06:39:22Z,female,21,5,1,Australia,Australian,3,4,5,5,5,5,3,5,3,4,5,5,5,5,5,4,6,5,6,5,6,6,6,6,6,6,1,1,5,5,1,4,4,4,2,2,Guns and Ships,Hamilton,0
TRUE,2020-05-08T11:42:53Z,2020-05-08T11:56:33Z,2020-05-08T11:56:33Z,female,18,5,1,Australia,"New Zealand, Indonesian",1,4,2,5,4,3,1,4,5,3,2,2,2,2,2,5,3,4,5,4,4,4,5,5,3,5,5,5,3,3,2,2,4,3,2,1,UMI,Butterfly,0
FALSE,2020-05-01T15:46:04Z,2020-05-01T15:46:22Z,2020-05-08T15:46:23Z,female,21,3,2,,,NA,NA,NA,NA,NA,NA,NA,NA,NA,NA,NA,NA,NA,NA,NA,NA,NA,NA,NA,NA,NA,NA,NA,NA,NA,NA,NA,NA,NA,NA,NA,NA,NA,NA,NA,NA,,,0.75
TRUE,2020-05-08T16:58:26Z,2020-05-08T17:10:33Z,2020-05-08T17:10:34Z,male,19,1,1,Australia,White Australian,1,4,2,2,3,2,2,3,3,1,2,2,2,2,3,4,4,2,4,3,4,4,4,3,2,4,1,4,4,4,3,4,3,3,4,4,Watsky,Mean Ass Drunk,0
TRUE,2020-05-08T17:11:39Z,2020-05-08T17:22:05Z,2020-05-08T17:22:05Z,female,36,3,1,Australia,Caucasian,1,4,4,3,4,5,1,4,3,5,4,4,4,3,4,5,4,5,1,4,5,5,4,4,1,4,5,4,1,1,3,4,4,2,3,4,Abu Bakr Ash Shatri,Surah An Naba,0
TRUE,2020-05-09T12:21:52Z,2020-05-09T12:25:36Z,2020-05-09T12:25:36Z,male,18,3,1,Australia,Australian,1,4,3,3,4,3,3,3,3,5,3,3,3,3,3,3,4,4,5,3,3,4,5,4,4,2,3,4,5,4,1,2,3,4,5,4,Die Antwoord,Banana Brain,0
TRUE,2020-05-09T12:44:23Z,2020-05-09T13:03:18Z,2020-05-09T13:03:18Z,male,19,5,2,Hong Kong,n/a,2,4,2,4,3,3,1,3,2,2,2,2,2,4,2,4,5,4,5,4,4,3,4,3,4,4,1,5,4,4,2,4,3,2,4,3,Lil Nas X,Old Town Road,0
TRUE,2020-05-09T14:38:18Z,2020-05-09T14:47:42Z,2020-05-09T14:47:42Z,female,18,5,1,Australia,Filipino,1,4,2,4,4,2,2,5,5,3,1,5,5,2,1,6,6,5,6,6,5,5,2,2,5,6,1,6,6,6,3,4,4,5,2,5,Fleetwood Mac,Dreams,0
TRUE,2020-05-09T15:15:37Z,2020-05-09T15:22:15Z,2020-05-09T15:22:16Z,male,18,5,1,Australia,Asian,1,4,5,5,5,5,5,5,5,4,5,5,5,4,5,6,6,3,1,4,6,4,4,6,3,4,4,4,5,4,2,3,3,3,3,3,"Lil Wayne, Bruno Mars",Mirror,0
TRUE,2020-05-10T03:00:45Z,2020-05-10T03:08:39Z,2020-05-10T03:08:40Z,male,21,5,1,Australia,Australian/Middle Eastern,1,4,4,3,4,4,3,5,3,4,4,5,4,4,4,5,6,6,4,4,5,5,3,1,5,6,5,5,5,3,4,3,3,5,4,4,Any Lofi channel on Youtube,Any Lofi Song,0
TRUE,2020-05-10T05:46:50Z,2020-05-10T05:56:27Z,2020-05-10T05:56:27Z,female,17,5,1,New Zealand,Chinese,4,4,3,5,3,2,4,4,4,3,3,5,3,2,2,6,6,5,5,4,5,6,4,4,4,6,4,6,5,5,2,4,4,5,4,4,frank ocean,lost,0
FALSE,2020-05-03T14:57:36Z,2020-05-03T15:02:33Z,2020-05-10T15:03:12Z,female,19,3,2,China,none,3,4,NA,NA,NA,NA,NA,NA,NA,NA,NA,NA,NA,NA,NA,NA,NA,NA,NA,NA,NA,NA,NA,NA,NA,NA,NA,NA,NA,NA,NA,NA,NA,NA,NA,NA,,,0.7083333333333334
TRUE,2020-05-10T15:04:22Z,2020-05-10T15:15:25Z,2020-05-10T15:15:25Z,male,18,5,2,China,Chinese,6,4,2,2,2,1,1,2,2,2,1,2,2,2,1,6,5,5,6,6,6,6,3,4,6,6,4,5,6,4,2,4,3,5,1,3,Sky Ferreira,Easy,0
TRUE,2020-05-10T15:28:19Z,2020-05-10T15:36:52Z,2020-05-10T15:36:52Z,male,26,4,2,China,N/A,5,4,3,5,5,5,5,3,3,5,3,3,3,3,3,5,5,4,6,5,4,4,4,4,4,4,4,4,4,4,2,3,3,3,3,3,Johann Sebastian Bach,Cello  Suite NO.1 G major,0
TRUE,2020-05-10T21:36:02Z,2020-05-10T21:53:29Z,2020-05-10T21:53:29Z,female,18,3,1,Australia,Australian,1,4,2,2,4,3,2,5,2,2,2,2,2,2,2,1,5,4,4,5,5,5,5,3,1,5,1,4,5,5,2,2,2,4,2,2,Lauv,Feelings,0
TRUE,2020-05-11T08:39:36Z,2020-05-11T08:50:49Z,2020-05-11T08:50:49Z,female,18,5,1,Australia and Syria,,1,4,2,4,4,4,5,3,3,3,2,2,2,2,2,6,6,5,4,3,4,4,6,3,4,5,5,6,6,4,4,2,5,5,4,4,Brent Faiyaz,Stay Down,0
TRUE,2020-05-11T08:44:46Z,2020-05-11T08:53:09Z,2020-05-11T08:53:10Z,male,22,5,1,Australia,Western,1,4,1,1,2,1,1,5,4,2,2,5,5,3,2,6,6,4,4,5,5,5,6,4,5,4,1,4,5,5,2,4,4,4,3,4,Layup,Every Mile,0
TRUE,2020-05-11T09:09:16Z,2020-05-11T09:20:32Z,2020-05-11T09:20:32Z,male,18,5,1,Australia,Australian,1,4,1,4,4,4,1,4,4,1,1,2,2,1,1,6,3,3,4,4,5,6,5,4,1,6,5,5,4,3,4,5,5,2,4,4,NF,Paralyzed,0
TRUE,2020-05-11T09:37:41Z,2020-05-11T09:51:09Z,2020-05-11T09:51:09Z,female,18,5,1,Australia,,4,4,3,4,3,4,3,4,3,4,3,4,4,4,3,6,5,4,2,4,5,5,4,4,1,5,1,4,4,3,2,5,4,4,3,2,,,0
TRUE,2020-05-11T10:57:58Z,2020-05-11T11:12:51Z,2020-05-11T11:12:51Z,female,48,5,1,Australia,Australian,1,6,2,4,4,4,3,5,4,3,2,4,4,2,2,4,4,5,5,5,5,4,5,5,6,6,5,4,4,3,1,4,2,2,2,2,Relaxation music,,0
TRUE,2020-05-11T11:22:11Z,2020-05-11T11:31:39Z,2020-05-11T11:31:39Z,male,22,5,1,Australia,Australian/Italian,1,5,4,4,4,3,1,5,5,4,3,4,4,3,3,6,6,4,4,4,5,5,4,2,3,5,4,4,4,5,4,5,4,3,3,4,Blackbear,,0
TRUE,2020-05-11T11:46:19Z,2020-05-11T11:54:26Z,2020-05-11T11:54:26Z,female,19,5,1,Australia,Indian,1,5,2,2,3,2,1,4,1,3,1,3,3,1,2,4,5,3,3,3,5,5,5,4,4,6,4,4,4,4,4,2,4,3,3,4,Ed Sheeran,Even my dad does sometimes,0
TRUE,2020-05-11T12:43:35Z,2020-05-11T12:57:02Z,2020-05-11T12:57:02Z,female,20,5,1,New Zealand,Biracial- Samoan and European NewZealander,1,5,3,1,3,4,1,5,2,2,3,3,3,3,3,1,5,3,4,3,3,4,4,4,2,4,1,4,5,4,1,3,2,4,2,2,Alo Key,Uso,0
TRUE,2020-05-11T13:33:18Z,2020-05-11T13:44:19Z,2020-05-11T13:44:20Z,female,19,5,1,Australia,,1,4,4,3,5,3,2,3,3,2,4,4,4,4,4,5,5,4,3,3,3,4,4,4,5,4,1,4,4,4,2,4,2,4,3,1,,,0
TRUE,2020-05-11T14:45:48Z,2020-05-11T15:00:42Z,2020-05-11T15:00:42Z,female,18,5,1,Australia,Australia,1,4,4,4,4,4,4,5,5,5,4,5,5,5,5,5,5,5,6,2,4,4,4,4,5,2,2,2,5,2,2,2,2,2,2,2,Mako Road,Sun will come up,0
TRUE,2020-05-11T14:55:39Z,2020-05-11T15:03:07Z,2020-05-11T15:03:08Z,male,21,5,2,Singapore,Chinese,4,4,4,5,3,2,1,4,3,4,4,5,5,4,2,6,6,4,4,3,4,4,4,4,3,5,5,1,1,3,2,5,2,5,3,3,Maggie Rogers,Alaska,0
TRUE,2020-05-11T15:39:35Z,2020-05-11T15:54:04Z,2020-05-11T15:54:05Z,female,19,3,1,AUSTRALIA,Caucasian,3,4,2,4,3,3,1,5,3,1,1,1,1,3,1,4,6,6,3,5,4,4,6,4,2,4,1,5,6,6,1,2,2,5,3,3,Sufjan Stevens,Visions of Gideon,0
TRUE,2020-05-11T15:56:51Z,2020-05-11T16:04:47Z,2020-05-11T16:04:48Z,male,18,5,1,Australia,Italian,1,4,5,3,4,4,1,1,2,4,3,5,5,5,4,6,6,3,5,1,1,1,5,6,3,6,1,5,6,6,2,5,2,3,4,4,Freya Ridings,Castles,0
TRUE,2020-05-11T16:18:28Z,2020-05-11T16:27:15Z,2020-05-11T16:27:16Z,female,18,5,1,Australia,Australia,1,4,4,4,4,2,2,2,4,2,3,5,4,4,2,5,6,4,6,2,6,6,5,3,5,4,1,4,5,3,3,5,4,3,2,2,Mac Miller,Once a Day,0
TRUE,2020-05-11T16:22:53Z,2020-05-11T16:34:15Z,2020-05-11T16:34:16Z,male,18,4,1,"Australia, Switzerland",Caucasian,1,4,1,1,3,2,1,5,1,1,1,2,1,1,1,1,5,1,4,3,3,4,5,3,1,1,1,1,4,5,4,1,4,5,1,1,Sufijan Stevens,Mystery of Love,0
TRUE,2020-05-11T16:20:36Z,2020-05-11T16:35:24Z,2020-05-11T16:35:25Z,female,17,5,1,Australia,,1,4,2,1,5,1,1,3,3,1,1,1,1,1,1,1,6,1,4,3,5,1,1,1,1,5,1,5,1,5,4,1,2,1,4,4,Halsey,Alone,0
TRUE,2020-05-11T16:28:38Z,2020-05-11T16:56:46Z,2020-05-11T16:56:46Z,female,21,5,1,Australia Hong Kong,Hong Kong,5,4,3,4,5,3,3,4,3,3,3,3,3,5,5,4,4,4,3,2,4,4,5,2,1,4,1,3,1,2,3,2,4,3,3,3,Acoustic music,Acoustic music,0
TRUE,2020-05-11T18:50:29Z,2020-05-11T19:03:07Z,2020-05-11T19:03:07Z,male,20,5,1,Australia,Punjabi,1,4,1,3,4,1,3,1,2,1,1,1,1,1,1,5,4,4,2,3,5,1,1,1,1,6,4,5,1,2,3,4,2,1,5,4,,,0
TRUE,2020-05-11T19:11:01Z,2020-05-11T19:28:38Z,2020-05-11T19:28:39Z,female,18,5,1,China,Eastern,1,4,5,5,5,5,4,5,5,3,5,5,5,4,5,1,3,2,6,4,2,3,1,5,5,2,1,1,1,4,2,1,2,3,3,1,,,0
TRUE,2020-05-11T19:43:22Z,2020-05-11T19:59:51Z,2020-05-11T19:59:51Z,male,18,5,1,Australia,Vietnamese,1,4,2,2,2,2,2,5,2,2,1,4,4,2,3,1,1,1,6,4,6,3,6,1,1,3,1,1,1,1,2,1,2,5,2,4,Jun Kuroda,Stay Alive,0
TRUE,2020-05-11T20:17:08Z,2020-05-11T20:26:01Z,2020-05-11T20:26:01Z,female,19,3,2,"Singapore, Hong Kong",Chinese,1,4,4,2,4,4,3,2,3,3,4,4,4,2,2,1,1,1,5,1,1,1,4,1,4,1,1,1,4,4,2,1,2,2,5,4,,,0
TRUE,2020-05-11T21:17:23Z,2020-05-11T21:22:41Z,2020-05-11T21:22:42Z,female,19,3,1,Australia,Australian,1,4,4,4,4,4,2,4,4,3,4,4,4,4,4,4,4,4,4,4,4,4,4,4,4,4,4,4,4,4,3,3,3,3,3,3,before you go,lewis capaldi,0
TRUE,2020-05-11T21:18:55Z,2020-05-11T21:26:40Z,2020-05-11T21:26:41Z,female,18,3,1,Australia,Filopino/Australian,1,4,4,2,2,4,2,5,4,3,3,4,4,4,2,6,5,5,5,4,6,6,4,5,6,5,4,1,6,5,4,5,3,5,4,2,Daniel Caesar,Streetcar,0
TRUE,2020-05-11T21:00:18Z,2020-05-11T21:34:49Z,2020-05-11T21:34:50Z,female,19,3,1,Australia,Australian,1,6,3,3,4,4,3,4,3,3,3,3,3,3,3,5,4,4,4,4,5,4,5,5,4,5,1,4,4,4,1,3,3,4,3,2,Lana Del Rey,Video Games,0
TRUE,2020-05-11T21:47:31Z,2020-05-11T21:59:10Z,2020-05-11T21:59:11Z,female,19,5,1,Australia,Caucasian,3,4,4,5,5,5,2,5,3,4,4,4,4,4,2,1,5,4,1,2,3,1,3,3,1,4,1,1,3,3,1,1,3,4,2,1,Lin Manuel Miranda,Breathe,0
TRUE,2020-05-12T00:42:25Z,2020-05-12T00:57:25Z,2020-05-12T00:57:26Z,female,18,1,2,France,French,2,4,4,5,5,2,4,4,3,3,3,4,4,4,2,1,2,5,6,4,3,2,4,5,1,3,1,4,6,6,4,1,2,5,1,4,,,0
TRUE,2020-05-12T08:20:10Z,2020-05-12T08:31:13Z,2020-05-12T08:31:14Z,female,18,4,1,Australia & Germany,Australia & Germany,1,4,4,3,3,4,2,5,3,3,3,4,3,4,4,5,3,1,3,5,5,4,5,4,5,5,1,1,1,5,1,3,3,5,2,2,,,0
TRUE,2020-05-12T09:47:00Z,2020-05-12T09:56:46Z,2020-05-12T09:56:47Z,female,18,2,1,Australia,Australian/English,1,4,4,2,2,4,1,4,1,1,1,1,1,4,1,5,6,6,2,3,2,4,3,2,5,4,6,6,2,2,3,4,4,5,3,4,Ben E King,Stand By Me,0
TRUE,2020-05-12T09:48:22Z,2020-05-12T09:59:04Z,2020-05-12T09:59:05Z,male,20,3,1,Australia,New Zealand,1,4,4,4,4,4,3,4,4,3,4,4,4,4,4,5,4,4,4,3,4,4,3,3,4,4,1,4,1,1,2,5,4,2,3,2,,,0
TRUE,2020-05-12T11:19:11Z,2020-05-12T11:30:05Z,2020-05-12T11:30:06Z,female,19,3,1,Australia,Caucasian,2,4,3,4,3,3,2,5,3,3,3,4,4,5,2,5,4,4,2,2,3,3,3,2,4,4,1,1,3,3,1,3,4,4,3,1,Alec Benjamin,Mind Is A Prison,0
TRUE,2020-05-12T12:06:49Z,2020-05-12T12:17:59Z,2020-05-12T12:17:59Z,female,18,5,1,Australia,Australian,1,6,3,5,4,4,3,5,1,3,4,4,4,1,1,4,3,6,6,1,4,5,4,3,1,6,1,1,5,5,1,4,2,4,2,1,,,0
TRUE,2020-05-12T12:19:29Z,2020-05-12T12:38:22Z,2020-05-12T12:38:23Z,female,19,5,2,China,The Han nationality,1,4,4,4,4,4,4,5,5,3,5,5,5,3,4,6,5,3,6,3,5,6,5,4,4,6,1,3,6,5,2,5,4,4,3,5,Billie Eilish,Six Feet Under,0
TRUE,2020-05-12T13:05:10Z,2020-05-12T13:15:39Z,2020-05-12T13:15:40Z,female,17,5,1,Australia,Australian,6,4,2,2,2,2,1,4,1,4,1,1,1,1,1,5,5,4,6,2,3,3,4,2,5,4,1,4,5,5,3,3,3,5,1,3,Billie Eilish,my strange addiction,0
TRUE,2020-05-12T13:29:50Z,2020-05-12T13:45:16Z,2020-05-12T13:45:17Z,female,17,5,1,Australia,None,1,5,1,1,2,2,1,5,4,1,2,1,2,1,2,4,5,5,1,4,4,4,3,2,1,4,6,4,3,2,4,2,2,4,2,4,Subwoofer Lullaby,C418,0
TRUE,2020-05-12T15:51:50Z,2020-05-12T16:02:14Z,2020-05-12T16:02:14Z,female,17,5,1,Australia,Caucasian,1,4,1,2,3,2,2,4,3,1,1,3,3,1,1,6,6,3,2,4,4,5,5,3,1,5,1,6,4,6,3,5,3,4,3,3,Gang of Youths,Keep me in the open,0
TRUE,2020-05-12T18:10:41Z,2020-05-12T18:16:39Z,2020-05-12T18:16:40Z,female,20,5,2,Malaysia,Malaysian Chinese,5,6,3,3,3,3,3,3,3,3,3,3,3,3,3,4,4,4,5,2,4,4,4,4,3,4,4,4,4,4,3,3,3,3,3,3,Kacey Musgraves,Rainbows,0
TRUE,2020-05-12T19:45:45Z,2020-05-12T19:52:43Z,2020-05-12T19:52:43Z,female,19,3,2,hk and sg,asian,1,4,2,1,1,1,3,1,3,1,1,1,1,1,1,1,1,1,6,1,1,1,4,4,1,1,1,1,5,5,2,2,2,2,5,3,,,0
TRUE,2020-05-12T21:09:06Z,2020-05-12T21:17:27Z,2020-05-12T21:17:28Z,male,19,5,1,Australia,Korean,1,4,3,4,4,4,4,3,4,3,3,4,4,2,2,5,6,4,6,6,6,5,6,6,6,5,1,5,4,4,2,2,2,4,3,4,,,0
TRUE,2020-05-13T10:56:10Z,2020-05-13T11:08:32Z,2020-05-13T11:08:33Z,male,18,5,1,Australia and India,Asian,1,5,1,1,1,1,1,3,2,1,1,2,2,1,1,5,5,3,5,4,4,5,3,2,4,4,2,4,4,3,4,4,4,4,3,3,John Newman,Love Me Again,0
TRUE,2020-05-13T11:39:43Z,2020-05-13T11:49:37Z,2020-05-13T11:49:37Z,female,18,5,1,Australia,South Korea,1,4,2,5,3,2,1,4,4,1,1,4,4,2,3,6,6,4,4,2,3,4,4,5,1,4,1,6,1,1,2,4,3,2,3,4,Zara Larsson,Uncover,0
TRUE,2020-05-13T12:56:48Z,2020-05-13T13:14:15Z,2020-05-13T13:14:15Z,female,19,3,2,China,Chinese,5,4,4,4,2,3,4,4,2,2,3,4,4,2,3,3,6,3,5,6,5,5,6,6,5,4,4,3,5,4,2,4,2,4,4,4,Hua ChenYu,I really want to love this world,0
TRUE,2020-05-13T16:36:13Z,2020-05-13T16:45:25Z,2020-05-13T16:45:26Z,female,22,5,1,Australia,Chinese,2,4,3,2,3,5,2,5,5,2,3,5,4,4,3,5,5,5,5,4,5,5,1,2,2,6,1,4,3,4,2,1,1,3,4,3,æ°ç,Qi Feng Le,0
TRUE,2020-05-13T16:51:13Z,2020-05-13T17:00:30Z,2020-05-13T17:00:30Z,female,18,3,1,Australia,Australian,2,6,3,4,3,4,2,4,3,3,2,4,3,4,2,5,4,4,5,2,4,2,3,4,4,2,1,4,2,4,1,5,2,5,2,1,,,0
TRUE,2020-05-13T17:05:46Z,2020-05-13T17:20:11Z,2020-05-13T17:20:11Z,male,18,5,1,Australia,Indian,1,4,2,5,5,4,3,4,3,1,2,4,4,4,4,6,5,2,4,3,5,5,3,3,1,3,1,5,1,2,2,4,4,5,4,2,Glen Campbell,Southern Nights,0
TRUE,2020-05-13T17:48:32Z,2020-05-13T17:55:30Z,2020-05-13T17:55:30Z,female,19,3,2,Malaysia,Chinese,4,4,4,5,3,4,2,5,2,2,4,4,3,4,3,4,6,3,5,4,5,5,5,6,6,3,4,3,5,6,4,2,2,5,2,3,tobi lou,I Was Sad Last Night I'm OK Now,0
TRUE,2020-05-13T19:08:32Z,2020-05-13T19:19:41Z,2020-05-13T19:19:42Z,female, 25,3,2,China,Chinese,5,4,3,4,3,4,2,3,3,3,4,4,3,3,3,4,5,4,2,3,5,5,5,4,4,NA,3,3,5,3,3,4,2,3,4,4,,,0.020833333333333332
TRUE,2020-05-13T21:23:07Z,2020-05-13T21:37:31Z,2020-05-13T21:37:31Z,female,18,3,1,Australia,Caucasian,4,4,1,4,4,1,1,5,5,4,1,1,2,3,4,6,6,4,6,5,6,6,4,4,5,6,1,6,6,6,2,5,3,3,4,3,Gang of Youths,Magnolia,0
TRUE,2020-05-14T09:35:38Z,2020-05-14T09:43:35Z,2020-05-14T09:43:36Z,female,24,3,1,Taiwan,,1,4,1,1,1,1,1,4,1,3,1,1,1,1,1,4,4,1,5,1,1,3,4,6,5,4,1,1,1,1,3,3,4,3,4,3,,,0
TRUE,2020-05-14T11:48:08Z,2020-05-14T12:00:44Z,2020-05-14T12:00:44Z,female,18,5,1,Australia,Australian,1,4,4,2,4,4,4,4,5,5,4,5,5,4,5,4,6,3,6,2,2,4,3,4,5,5,1,5,4,5,4,2,4,5,4,4,Satoshi Takebe,Summer of Farewells,0
TRUE,2020-05-14T13:24:37Z,2020-05-14T13:39:49Z,2020-05-14T13:39:50Z,female,24,3,1,Australia,White,3,4,2,2,2,4,2,4,4,3,2,3,2,2,3,5,4,5,3,4,4,4,5,4,5,1,1,5,1,1,2,5,5,3,3,4,Celtic Woman,SiÃºil a RÃºn,0
TRUE,2020-05-14T14:18:49Z,2020-05-14T14:27:53Z,2020-05-14T14:27:53Z,female,18,3,1,"Australia, England",Australian,1,4,2,2,4,2,2,4,4,2,2,4,3,2,1,3,5,4,6,4,4,2,3,4,2,4,3,5,5,6,1,4,3,4,2,1,Oceans,Hillsong,0
TRUE,2020-05-14T15:16:48Z,2020-05-14T15:25:38Z,2020-05-14T15:25:38Z,male,18,5,2,Hong Kong,Asian,6,4,4,4,4,4,4,4,4,4,4,4,4,4,4,4,6,2,4,2,2,5,3,6,2,2,2,2,2,2,1,2,1,5,1,1,Fonzi M,Darling,0
TRUE,2020-05-14T16:48:36Z,2020-05-14T17:08:17Z,2020-05-14T17:08:18Z,male,21,3,2,India,Meitei,3,4,4,4,4,5,3,4,5,4,4,4,4,4,4,5,5,5,5,6,5,5,4,4,4,5,5,5,5,4,2,4,4,5,4,4,Simple Plan,This song saved my life,0
TRUE,2020-05-14T17:04:33Z,2020-05-14T17:20:51Z,2020-05-14T17:20:51Z,male,19,5,1,Australia and Japan,Caucasian and Asian,1,4,4,3,4,2,1,5,3,2,4,4,4,4,2,1,5,1,5,4,5,4,3,3,5,1,1,5,1,1,2,2,4,5,2,2,Howl's Moving Castle,Joe Hisaischi,0
TRUE,2020-05-14T22:20:52Z,2020-05-14T22:33:26Z,2020-05-14T22:33:26Z,female,19,5,1,Australia,Australian,1,4,4,2,4,4,4,4,5,3,4,5,5,4,2,5,5,4,3,4,4,5,3,4,5,5,3,4,5,4,2,4,3,4,4,3,Spacey Jane,Straightfaced,0
TRUE,2020-05-15T09:35:57Z,2020-05-15T09:43:23Z,2020-05-15T09:43:24Z,female,27,3,1,Australia,Australian,3,4,5,4,4,5,1,5,5,5,3,4,4,5,2,5,4,4,3,3,2,2,4,4,5,4,5,5,4,3,4,3,2,4,4,4,Home,Edward sharp and the magnetic zeros,0
TRUE,2020-05-15T09:47:35Z,2020-05-15T09:57:25Z,2020-05-15T09:57:25Z,female,27,5,1,USA,N/A,1,4,3,5,5,5,1,4,5,4,3,3,3,4,3,6,6,6,6,6,5,5,3,3,6,6,1,5,5,5,4,5,5,2,3,3,ICEHOUSE,GREAT SOUTHERN LAND,0
TRUE,2020-05-15T10:02:46Z,2020-05-15T10:15:44Z,2020-05-15T10:15:44Z,female,18,3,1,Australia,Caucasian,1,4,1,2,4,2,1,2,5,2,1,5,4,2,2,5,5,1,5,5,4,4,5,2,1,6,1,6,6,4,4,5,2,5,4,4,,,0
TRUE,2020-05-15T10:36:57Z,2020-05-15T10:56:23Z,2020-05-15T10:56:24Z,male,18,3,1,Australia,Caucasian,1,6,2,2,5,3,1,5,5,3,2,4,3,2,2,5,5,3,4,4,4,5,4,3,1,4,1,3,1,4,2,5,4,4,2,2,Foo Fighters,Times Like These,0
TRUE,2020-05-15T11:42:51Z,2020-05-15T11:52:52Z,2020-05-15T11:52:53Z,male,18,3,1,Australia,Hmong,5,4,4,4,4,4,2,5,1,4,4,5,5,5,5,3,6,4,5,4,2,5,5,6,1,3,1,3,4,4,1,1,1,5,2,3,Kim Taehyung,Sweet Night,0
TRUE,2020-05-15T14:27:14Z,2020-05-15T14:37:19Z,2020-05-15T14:37:20Z,male,18,5,2,Hong Kong,Chinese,6,4,5,2,2,4,2,4,2,2,5,5,5,2,4,1,6,4,4,3,5,3,3,6,5,1,1,4,3,5,4,4,1,4,5,3,Billie Eilish,I love you,0
TRUE,2020-05-15T14:53:29Z,2020-05-15T14:59:37Z,2020-05-15T14:59:37Z,male,19,3,1,"Australia, England",Caucasian,3,4,4,3,3,4,3,3,4,3,3,4,4,3,2,6,5,3,5,2,3,4,4,5,4,2,1,5,5,2,5,4,4,3,3,2,Loyle Carner,No worries,0
TRUE,2020-05-15T16:09:52Z,2020-05-15T16:20:02Z,2020-05-15T16:20:03Z,female,19,3,2,China,Asia,5,4,4,5,5,3,2,4,3,2,3,2,3,2,2,5,3,4,4,3,4,4,3,2,3,4,1,5,5,2,2,4,2,2,5,5,,,0
TRUE,2020-05-15T16:16:43Z,2020-05-15T16:33:06Z,2020-05-15T16:33:07Z,male,23,5,2,China,Asian,1,4,3,5,4,4,5,5,3,2,2,1,1,4,2,1,5,1,5,1,4,4,3,3,1,4,1,5,5,5,3,1,4,5,3,4,,,0
TRUE,2020-05-15T16:00:08Z,2020-05-15T16:35:47Z,2020-05-15T16:35:47Z,male,24,1,2,china,china,1,4,3,5,4,5,4,5,5,3,4,4,4,4,4,3,5,1,5,2,1,1,2,6,3,1,1,1,1,1,3,4,2,3,3,3,,,0
TRUE,2020-05-15T16:24:59Z,2020-05-15T16:45:45Z,2020-05-15T16:45:46Z,male,18,5,1,Australia,White,1,4,4,4,4,4,1,4,4,1,4,5,4,1,1,6,6,1,1,5,6,6,1,4,1,5,1,6,2,5,4,5,5,3,4,5,Silence,Marshmello,0
TRUE,2020-05-15T16:05:57Z,2020-05-15T17:01:46Z,2020-05-15T17:01:47Z,female,18,5,1,Australia,Australian,1,4,4,2,4,3,3,4,4,3,2,4,4,4,2,5,4,4,4,3,4,4,4,3,1,5,1,4,4,4,4,4,4,4,4,4,Harry Styles,,0
TRUE,2020-05-15T18:34:24Z,2020-05-15T18:45:02Z,2020-05-15T18:45:02Z,female,18,5,1,Australia,Australian,1,5,4,5,5,5,1,5,5,5,2,4,4,2,2,5,5,6,6,4,4,6,2,4,5,6,1,6,6,6,4,5,4,2,4,2,Sticky Fingers,Rum Rage,0
TRUE,2020-05-15T20:37:19Z,2020-05-15T20:43:51Z,2020-05-15T20:43:51Z,female,24,5,1,Australia,Caucasian,1,5,4,4,4,4,3,4,5,4,4,5,4,4,4,4,5,3,4,3,3,3,4,4,2,3,1,5,5,3,1,2,2,4,4,4,Rusted Roots,Send me on my way,0
TRUE,2020-05-16T13:04:29Z,2020-05-16T13:52:19Z,2020-05-16T13:52:20Z,female,18,5,1,Australia,South Korean,1,4,4,3,3,4,2,4,3,3,4,4,4,3,4,4,5,1,3,4,4,1,3,5,5,3,4,4,1,4,2,3,3,3,2,2,Eden Project,drowning.,0
TRUE,2020-05-16T20:50:18Z,2020-05-16T20:58:52Z,2020-05-16T20:58:52Z,female,19,5,1,australia,australia,1,5,4,4,4,4,3,4,4,4,4,5,4,4,3,6,5,5,6,5,4,4,4,4,5,4,3,4,4,4,3,4,4,5,4,4,Ariana Grande,Thanku next,0
TRUE,2020-05-16T22:22:07Z,2020-05-16T22:38:04Z,2020-05-16T22:38:04Z,female,20,5,2,Macau,Chinese,5,4,4,4,4,4,3,4,3,3,3,3,3,3,3,4,5,3,5,4,4,4,5,4,5,4,4,4,4,4,2,3,4,3,3,3,ChilledCow,lofi hip hop radio - beats to relax/study to,0
TRUE,2020-05-16T23:59:11Z,2020-05-17T00:07:02Z,2020-05-17T00:07:03Z,male,18,5,1,Australia,White,1,5,1,2,1,1,1,4,5,5,1,3,3,1,1,6,4,3,5,4,4,4,5,4,3,5,1,4,1,4,4,2,2,4,3,2,,,0
TRUE,2020-05-17T01:25:25Z,2020-05-17T01:37:11Z,2020-05-17T01:37:12Z,female,18,5,1,Australian,Chinese,1,4,4,4,4,4,4,5,3,3,4,5,4,3,3,4,6,5,6,3,2,1,3,4,1,2,1,1,1,5,2,2,2,5,1,3,Joe Hisaishi,The Sixth Station,0
FALSE,2020-05-10T15:48:43Z,2020-05-10T15:52:36Z,2020-05-17T15:53:30Z,female,23,5,2,China,None,5,4,4,4,4,4,4,4,4,4,4,4,4,4,4,NA,NA,NA,NA,NA,NA,NA,NA,NA,NA,NA,NA,NA,NA,NA,NA,NA,NA,NA,NA,NA,,,0.4375
FALSE,2020-05-10T15:54:14Z,2020-05-10T15:54:51Z,2020-05-17T15:54:51Z,female,23,1,2,,,NA,NA,NA,NA,NA,NA,NA,NA,NA,NA,NA,NA,NA,NA,NA,NA,NA,NA,NA,NA,NA,NA,NA,NA,NA,NA,NA,NA,NA,NA,NA,NA,NA,NA,NA,NA,,,0.75
FALSE,2020-05-10T15:55:31Z,2020-05-10T15:56:15Z,2020-05-17T15:56:21Z,female,21,5,2,,,NA,NA,NA,NA,NA,NA,NA,NA,NA,NA,NA,NA,NA,NA,NA,NA,NA,NA,NA,NA,NA,NA,NA,NA,NA,NA,NA,NA,NA,NA,NA,NA,NA,NA,NA,NA,,,0.75
FALSE,2020-05-10T15:56:06Z,2020-05-10T16:01:11Z,2020-05-17T16:01:36Z,female,23,1,2,china,master,5,4,3,3,3,3,3,3,3,2,3,3,3,3,3,NA,NA,NA,NA,NA,NA,NA,NA,NA,NA,NA,NA,NA,NA,NA,NA,NA,NA,NA,NA,NA,,,0.4375
FALSE,2020-05-10T18:07:35Z,2020-05-10T18:09:40Z,2020-05-17T18:10:04Z,female,17,5,2,China,China,1,6,NA,NA,NA,NA,NA,NA,NA,NA,NA,NA,NA,NA,NA,NA,NA,NA,NA,NA,NA,NA,NA,NA,NA,NA,NA,NA,NA,NA,NA,NA,NA,NA,NA,NA,,,0.7083333333333334
TRUE,2020-05-17T18:30:55Z,2020-05-17T18:42:16Z,2020-05-17T18:42:16Z,male,18,5,1,"Australia, India","Sikh, Indians, Australians",1,4,4,5,4,4,3,4,3,3,4,3,3,3,3,4,5,4,4,5,5,4,4,4,3,5,2,4,3,5,4,4,2,4,2,2,Highly suspect,My name is human,0
TRUE,2020-05-17T20:26:54Z,2020-05-17T20:35:40Z,2020-05-17T20:35:40Z,female,17,3,1,Australia,Caucasian (Australian),4,4,4,4,4,3,3,4,3,2,4,4,4,2,1,3,6,2,4,5,6,6,3,4,6,6,1,6,3,4,2,3,3,4,3,4,Of Monsters and Men,(any of theirs),0
FALSE,2020-05-10T22:33:36Z,2020-05-10T22:35:25Z,2020-05-17T22:35:25Z,male,25,4,2,China,Chinese,2,4,NA,NA,NA,NA,NA,NA,NA,NA,NA,NA,NA,NA,NA,NA,NA,NA,NA,NA,NA,NA,NA,NA,NA,NA,NA,NA,NA,NA,NA,NA,NA,NA,NA,NA,,,0.7083333333333334
TRUE,2020-05-17T23:06:34Z,2020-05-17T23:13:01Z,2020-05-17T23:13:01Z,male,19,3,1,Australia,Asian,1,6,2,4,2,4,1,4,4,1,2,2,2,2,1,6,6,4,5,6,6,3,5,6,6,6,1,1,1,4,2,4,4,4,5,5,Joep Beving,Midwayer,0
FALSE,2020-05-11T09:06:40Z,2020-05-11T09:12:47Z,2020-05-18T09:13:02Z,female,18,5,1,Australia,Australian,1,4,2,4,5,3,1,5,5,4,2,4,2,2,2,6,5,4,5,3,4,4,5,2,4,4,1,5,6,6,NA,NA,NA,NA,NA,NA,Metro Station,Shake it,0.125
TRUE,2020-05-18T14:19:47Z,2020-05-18T14:29:33Z,2020-05-18T14:29:34Z,female,18,3,1,Australia,Australian / white,4,4,5,4,5,5,1,4,4,2,4,5,2,2,1,5,4,4,5,5,5,5,3,3,4,3,1,4,4,5,2,5,3,5,1,3,Coda,Fighting Gold,0
FALSE,2020-05-11T15:54:11Z,2020-05-11T15:56:17Z,2020-05-18T15:56:19Z,male,18,5,1,New Zealand,Pakeha (European kiwi),1,4,NA,NA,NA,NA,NA,NA,NA,NA,NA,NA,NA,NA,NA,NA,NA,NA,NA,NA,NA,NA,NA,NA,NA,NA,NA,NA,NA,NA,NA,NA,NA,NA,NA,NA,,,0.7083333333333334
FALSE,2020-05-11T15:56:33Z,2020-05-11T15:57:12Z,2020-05-18T15:57:17Z,female,18,1,1,Australia,China,1,4,NA,NA,NA,NA,NA,NA,NA,NA,NA,NA,NA,NA,NA,NA,NA,NA,NA,NA,NA,NA,NA,NA,NA,NA,NA,NA,NA,NA,NA,NA,NA,NA,NA,NA,,,0.7083333333333334
FALSE,2020-05-11T15:54:49Z,2020-05-11T16:01:09Z,2020-05-18T16:01:11Z,female,18,5,1,Australia,Indonesia,1,4,5,5,5,4,2,4,2,2,4,4,4,2,2,NA,NA,NA,NA,NA,NA,NA,NA,NA,NA,NA,NA,NA,NA,NA,NA,NA,NA,NA,NA,NA,,,0.4375
TRUE,2020-05-18T16:13:19Z,2020-05-18T16:23:34Z,2020-05-18T16:23:35Z,male,17,1,1,Australia,Asian (Chinese/Singaporean/Malaysian),1,4,4,4,4,5,2,5,4,2,5,5,4,4,4,4,6,4,6,4,5,6,4,6,4,5,4,5,5,6,1,4,2,4,2,3,Frank Ocean/ Spacey Jane,Dear April,0
FALSE,2020-05-11T17:01:39Z,2020-05-11T17:02:39Z,2020-05-18T17:02:49Z,female,18,5,1,Australia and Ireland,White,1,NA,NA,NA,NA,NA,NA,NA,NA,NA,NA,NA,NA,NA,NA,NA,NA,NA,NA,NA,NA,NA,NA,NA,NA,NA,NA,NA,NA,NA,NA,NA,NA,NA,NA,NA,,,0.7291666666666666
FALSE,2020-05-11T17:24:20Z,2020-05-11T17:28:12Z,2020-05-18T17:28:49Z,female,18,5,1,Australia,,1,4,NA,NA,NA,NA,NA,NA,NA,NA,NA,NA,NA,NA,NA,NA,NA,NA,NA,NA,NA,NA,NA,NA,NA,NA,NA,NA,NA,NA,NA,NA,NA,NA,NA,NA,,,0.7083333333333334
FALSE,2020-05-11T17:37:10Z,2020-05-11T17:37:48Z,2020-05-18T17:37:49Z,male,18,4,1,Australia,White,1,4,NA,NA,NA,NA,NA,NA,NA,NA,NA,NA,NA,NA,NA,NA,NA,NA,NA,NA,NA,NA,NA,NA,NA,NA,NA,NA,NA,NA,NA,NA,NA,NA,NA,NA,,,0.7083333333333334
FALSE,2020-05-11T17:40:39Z,2020-05-11T17:46:53Z,2020-05-18T17:47:10Z,female,18,5,1,Australia,Philippines,1,4,4,4,4,2,2,4,4,2,4,5,4,4,2,NA,NA,NA,NA,NA,NA,NA,NA,NA,NA,NA,NA,NA,NA,NA,NA,NA,NA,NA,NA,NA,,,0.4375
FALSE,2020-05-11T17:55:45Z,2020-05-11T18:00:53Z,2020-05-18T18:00:56Z,female,18,5,1,Australia,Caucasian,3,4,NA,NA,NA,NA,NA,NA,NA,NA,NA,NA,NA,NA,NA,NA,NA,NA,NA,NA,NA,NA,NA,NA,NA,NA,NA,NA,NA,NA,NA,NA,NA,NA,NA,NA,,,0.7083333333333334
TRUE,2020-05-18T18:29:53Z,2020-05-18T18:43:41Z,2020-05-18T18:43:41Z,female,19,1,1,Iraq,Iraqi,1,4,2,3,2,2,1,5,5,4,4,5,5,2,2,5,6,4,6,4,2,1,3,6,5,1,1,3,4,5,2,4,2,5,4,3,Harry Styles,Fine Line,0
FALSE,2020-05-11T21:12:34Z,2020-05-11T21:16:27Z,2020-05-18T21:16:36Z,male,18,5,1,Australia,khmer,1,4,4,5,5,4,1,5,1,1,4,4,4,2,2,NA,NA,NA,NA,NA,NA,NA,NA,NA,NA,NA,NA,NA,NA,NA,NA,NA,NA,NA,NA,NA,,,0.4375
FALSE,2020-05-12T00:43:24Z,2020-05-12T00:44:33Z,2020-05-19T00:44:36Z,male,23,4,2,,,NA,NA,NA,NA,NA,NA,NA,NA,NA,NA,NA,NA,NA,NA,NA,NA,NA,NA,NA,NA,NA,NA,NA,NA,NA,NA,NA,NA,NA,NA,NA,NA,NA,NA,NA,NA,,,0.75
FALSE,2020-05-12T09:28:29Z,2020-05-12T09:36:43Z,2020-05-19T09:37:08Z,female,18,5,1,Australia,Australian,3,4,2,1,1,3,3,5,5,3,4,4,4,2,4,5,4,2,6,1,3,1,3,4,1,4,1,1,1,5,NA,NA,NA,NA,NA,NA,,,0.125
TRUE,2020-05-19T10:39:39Z,2020-05-19T10:53:25Z,2020-05-19T10:53:26Z,female,18,3,1,Australia,Australian,4,4,2,2,5,4,5,5,5,2,3,4,4,1,4,5,4,4,5,6,6,6,5,6,5,6,1,5,4,1,1,5,3,5,1,1,Evan Rachel Wood,All Is Found,0
TRUE,2020-05-19T14:13:14Z,2020-05-19T14:26:37Z,2020-05-19T14:26:38Z,female,19,3,1,Australia,"Australian, Caucasian",3,4,1,4,4,2,1,4,5,2,1,5,5,4,1,5,5,1,4,4,6,6,5,5,5,6,1,6,5,5,2,4,2,3,4,4,Milky Chance & Jack Johnson,Don't Let Me Down,0
TRUE,2020-05-19T16:08:12Z,2020-05-19T16:11:11Z,2020-05-19T16:11:12Z,female,18,2,1,Aus,Aus,4,4,2,3,2,3,2,3,3,3,4,2,3,2,3,3,4,3,4,3,3,4,3,4,3,3,5,2,4,3,3,4,2,5,1,3,XXXTENTATION,i dont remember,0
TRUE,2020-05-20T12:43:53Z,2020-05-20T13:30:58Z,2020-05-20T13:30:58Z,female,19,5,1,Australia,Caucasian,1,4,4,4,4,4,3,4,4,3,3,4,4,4,4,4,5,4,4,4,3,3,4,2,3,4,1,5,3,4,4,2,2,2,2,4,,Come on Eileen,0
TRUE,2020-05-20T15:11:30Z,2020-05-20T15:23:19Z,2020-05-20T15:23:19Z,male,22,5,1,Australia,Australian/Italian,1,5,2,4,4,3,2,4,4,4,3,4,3,4,3,6,4,4,4,4,5,4,3,1,4,5,4,4,5,3,4,4,4,3,3,4,Blackbear,,0
TRUE,2020-05-20T17:45:00Z,2020-05-20T17:54:42Z,2020-05-20T17:54:42Z,female,19,5,1,Australia + Hong Kong,Asian,1,4,5,5,5,5,4,5,3,3,5,5,5,5,5,5,4,5,6,5,4,5,5,6,2,5,5,6,6,2,1,3,3,4,2,3,,,0
FALSE,2020-05-13T18:07:59Z,2020-05-13T18:11:06Z,2020-05-20T18:11:18Z,female,20,1,2,China,,3,4,NA,NA,NA,NA,NA,NA,NA,NA,NA,NA,NA,NA,NA,NA,NA,NA,NA,NA,NA,NA,NA,NA,NA,NA,NA,NA,NA,NA,NA,NA,NA,NA,NA,NA,,,0.7083333333333334
TRUE,2020-05-20T18:42:40Z,2020-05-20T18:51:09Z,2020-05-20T18:51:10Z,male,20,5,1,Australia,Chinese,1,4,4,3,4,4,3,4,4,3,4,5,4,2,3,6,6,6,6,3,6,6,6,6,6,6,2,6,6,6,3,5,3,5,1,5,,,0
TRUE,2020-05-20T18:57:53Z,2020-05-20T19:09:24Z,2020-05-20T19:09:25Z,female,18,3,1,Australia/New Zealand,Caucasian/asian,1,4,4,4,4,4,2,4,4,3,4,5,5,4,2,6,5,5,5,5,5,5,4,5,3,3,2,5,5,5,1,5,3,5,3,1,Lewis Capaldi,grace,0
FALSE,2020-05-14T12:45:25Z,2020-05-14T12:47:44Z,2020-05-21T12:47:47Z,female,19,5,2,china,Asian,3,4,NA,NA,NA,NA,NA,NA,NA,NA,NA,NA,NA,NA,NA,NA,NA,NA,NA,NA,NA,NA,NA,NA,NA,NA,NA,NA,NA,NA,NA,NA,NA,NA,NA,NA,,,0.7083333333333334
TRUE,2020-05-21T13:26:41Z,2020-05-21T13:42:14Z,2020-05-21T13:42:15Z,male,18,5,1,none,Australian,4,6,2,4,4,4,1,5,3,3,3,4,4,3,3,5,4,4,3,3,4,4,5,4,4,5,4,4,4,2,2,4,4,4,3,4,,,0
TRUE,2020-05-21T15:21:08Z,2020-05-21T15:35:35Z,2020-05-21T15:35:35Z,male,23,3,2,Singapore,Singaporean chinese,6,4,4,5,5,5,1,5,5,4,5,5,5,4,4,6,6,6,6,6,6,6,6,6,6,6,3,6,3,6,4,4,4,4,4,4,Lui Peng,Demons,0
TRUE,2020-05-21T15:35:25Z,2020-05-21T15:43:26Z,2020-05-21T15:43:27Z,female,19,3,2,Myanmar,Chinese-Burmese,5,4,2,4,4,3,1,4,3,1,2,2,2,3,4,4,5,4,5,3,2,2,1,3,1,4,1,1,4,5,2,3,4,4,4,3,,,0
TRUE,2020-05-21T15:34:33Z,2020-05-21T15:43:35Z,2020-05-21T15:43:35Z,female,20,3,2,Indonesia,South East Asian,5,4,1,5,4,3,1,5,1,1,1,1,1,4,1,3,5,4,5,4,6,6,6,6,5,3,1,5,3,4,4,4,2,3,3,5,Frank Ocean,Cayendo,0
TRUE,2020-05-21T15:35:05Z,2020-05-21T15:45:53Z,2020-05-21T15:45:53Z,female,22,3,2,Vietnam,Asian,3,4,2,4,4,3,2,5,5,5,2,3,4,2,2,4,4,2,3,4,2,3,4,4,4,2,2,3,3,2,1,2,3,4,3,1,Many artist,Many songs,0
TRUE,2020-05-21T15:35:04Z,2020-05-21T15:46:07Z,2020-05-21T15:46:08Z,female,19,3,2,Indonesia,Indonesian,5,4,4,5,3,4,3,5,5,3,4,4,4,5,5,4,6,4,5,5,5,4,4,4,5,5,4,5,6,6,2,3,3,2,4,2,BTS,Boy with Luv,0
TRUE,2020-05-21T15:34:49Z,2020-05-21T15:47:16Z,2020-05-21T15:47:17Z,female,21,3,2,Thailand,Thai,6,4,3,2,2,4,4,5,5,4,4,4,4,3,3,5,6,4,4,4,3,4,4,4,1,3,1,4,5,5,3,5,3,4,4,2,Violette Wautier,Monster,0
TRUE,2020-05-21T15:35:24Z,2020-05-21T15:47:37Z,2020-05-21T15:47:38Z,female,19,3,2,Indonesia,Indonesian,5,4,4,4,2,2,3,4,3,2,4,4,4,4,2,4,5,5,5,4,4,5,5,5,4,4,5,4,5,3,2,3,3,4,4,2,Crash Landing on You,Crash Landing on you Full OST,0
TRUE,2020-05-21T15:35:40Z,2020-05-21T15:48:20Z,2020-05-21T15:48:21Z,female,18,3,2,Indonesia,Chinese-indonesian,6,4,4,5,1,2,3,4,3,4,4,5,4,2,1,3,4,4,6,6,6,6,1,5,4,5,4,5,5,3,3,2,4,4,4,4,Joe Hisaishi,"Anything, but my favorite is Hope and Legacy",0
TRUE,2020-05-21T15:35:33Z,2020-05-21T15:48:54Z,2020-05-21T15:48:54Z,female,17,3,2,Hong Kong,Chinese,1,4,4,4,4,5,3,5,3,3,4,4,4,4,4,4,5,3,6,4,5,5,5,3,2,4,2,2,6,6,2,2,2,5,2,3,,,0
TRUE,2020-05-21T16:13:25Z,2020-05-21T16:17:38Z,2020-05-21T16:17:38Z,male,24,3,2,Hong Kong,Hong Kong,5,5,5,5,5,5,5,5,5,5,5,5,5,5,5,2,2,2,2,2,2,2,2,2,2,2,2,2,2,2,2,2,2,2,2,2,Imagine Dragons,Demons,0
TRUE,2020-05-21T15:58:33Z,2020-05-21T16:18:38Z,2020-05-21T16:18:38Z,female,22,3,2,Malaysia,Chinese,1,4,4,4,2,3,2,4,3,2,4,4,4,3,3,4,4,3,5,3,4,4,3,5,4,4,1,1,3,1,2,3,3,3,2,2,,,0
TRUE,2020-05-21T16:02:34Z,2020-05-21T16:19:32Z,2020-05-21T16:19:32Z,female,22,3,2,Thailand,Thai,5,4,5,4,3,3,4,3,3,4,4,4,4,2,2,4,5,5,4,4,3,4,4,2,5,5,5,4,5,5,2,4,2,4,4,3,Waves,Dean Lewis,0
TRUE,2020-05-21T16:14:34Z,2020-05-21T16:29:45Z,2020-05-21T16:29:45Z,female,20,3,2,Singapore,Chinese,5,4,1,5,2,1,3,2,3,1,1,1,1,5,1,4,6,6,6,3,5,6,4,4,2,2,2,4,6,6,1,1,1,5,2,1,The Script,Run Through Walls,0
TRUE,2020-05-21T16:29:12Z,2020-05-21T16:41:36Z,2020-05-21T16:41:37Z,female,21,3,2,Indonesia,Chinese,5,4,4,5,4,4,5,5,3,3,4,4,4,3,4,5,5,4,5,6,6,5,4,4,5,1,4,1,3,4,2,1,4,5,3,3,Hillsong,,0
TRUE,2020-05-21T17:05:40Z,2020-05-21T17:15:40Z,2020-05-21T17:15:41Z,female,20,3,2,Singapore,Indian,1,4,4,5,3,4,4,4,4,2,4,4,4,4,3,4,4,4,5,2,4,4,2,2,4,4,1,5,4,4,4,2,3,4,4,3,The Sweeplings,Hold Me,0
TRUE,2020-05-21T17:27:09Z,2020-05-21T17:42:47Z,2020-05-21T17:42:47Z,female,21,3,2,Indonesia,Indonesian,6,4,4,4,3,4,4,5,3,3,4,4,4,4,3,4,3,3,3,4,5,4,3,4,4,5,3,4,3,2,2,4,2,5,2,3,,,0
TRUE,2020-05-21T18:47:44Z,2020-05-21T18:58:20Z,2020-05-21T18:58:21Z,female,22,3,2,"China, Portugal",Asian,6,4,4,5,3,4,1,4,2,3,4,4,3,3,4,1,4,4,6,3,3,1,5,6,1,3,4,4,6,4,3,4,4,4,4,3,,,0
TRUE,2020-05-21T19:29:48Z,2020-05-21T19:40:33Z,2020-05-21T19:40:33Z,female,21,3,2,Indonesia,Indonesian/Asian,3,4,5,4,4,5,2,5,2,2,5,5,5,5,5,4,5,5,6,5,4,4,6,5,4,5,5,3,5,5,5,2,3,5,2,3,SEVENTEEN,Hug,0
TRUE,2020-05-21T19:21:43Z,2020-05-21T19:42:37Z,2020-05-21T19:42:37Z,female,20,3,2,France,European,3,4,3,5,4,4,2,4,5,5,2,3,2,2,2,5,4,6,4,3,5,6,5,4,6,6,1,6,5,4,3,5,5,4,3,4,Agnes Obel,Riverside,0
TRUE,2020-05-21T19:52:24Z,2020-05-21T20:11:06Z,2020-05-21T20:11:06Z,female,22,3,2,Malaysia,Malaysian Malay,5,4,4,5,2,3,3,5,4,4,4,5,4,3,5,4,6,4,2,2,5,5,3,1,3,3,1,5,6,6,1,4,3,2,1,3,Ben Platt,You Will Be Found,0
TRUE,2020-05-21T20:58:12Z,2020-05-21T21:11:03Z,2020-05-21T21:11:03Z,female,21,3,2,Hong Kong,Chinese,3,4,5,4,5,4,5,5,5,4,4,4,4,5,4,5,4,5,3,3,4,4,4,2,4,4,1,5,5,3,2,4,4,5,1,2,Bahamas,All Iâve ever know,0
TRUE,2020-05-21T21:29:53Z,2020-05-21T21:42:16Z,2020-05-21T21:42:17Z,female,17,3,2,Taiwan,Asian,1,4,5,2,4,4,2,4,3,4,5,5,2,2,5,5,4,4,5,4,5,5,3,6,6,6,4,4,4,4,2,4,4,4,4,3,Maisie Peters,The List,0
FALSE,2020-05-14T21:40:54Z,2020-05-14T21:43:39Z,2020-05-21T21:43:52Z,male,18,5,1,Australia,Chinese,1,4,4,3,3,4,3,4,4,3,4,4,4,4,4,NA,NA,NA,NA,NA,NA,NA,NA,NA,NA,NA,NA,NA,NA,NA,NA,NA,NA,NA,NA,NA,,,0.4375
TRUE,2020-05-21T22:55:09Z,2020-05-21T23:06:18Z,2020-05-21T23:06:19Z,female,19,3,2,Hong Kong,Chinese,3,4,4,4,3,4,1,3,3,2,4,4,4,4,4,4,6,5,3,3,3,3,3,5,4,4,3,3,4,5,3,3,2,3,4,3,Endy chow,Children Song,0
TRUE,2020-05-22T02:34:07Z,2020-05-22T02:54:25Z,2020-05-22T02:54:25Z,female,21,3,2,Peru,south american,1,6,5,5,5,5,3,1,1,4,3,5,3,4,4,6,6,6,6,3,5,5,2,2,6,6,1,1,6,6,2,1,3,4,5,5,the weekend,blinding lights,0
TRUE,2020-05-22T10:00:06Z,2020-05-22T10:17:43Z,2020-05-22T10:17:43Z,female,21,3,2,Singapore,Chinese,1,4,5,5,2,2,5,4,3,2,4,5,4,3,5,1,5,5,5,2,4,5,3,4,1,5,1,4,6,5,5,1,4,5,4,4,Ariana Grande,Breathin,0
TRUE,2020-05-22T15:05:31Z,2020-05-22T15:15:42Z,2020-05-22T15:15:43Z,female,22,5,2,south korea,asian,3,4,5,5,5,5,1,5,1,4,1,4,3,5,5,6,6,6,6,6,6,6,5,5,6,6,4,6,4,3,3,4,4,3,3,3,BTS,spring day,0
FALSE,2020-05-15T15:58:59Z,2020-05-15T15:59:29Z,2020-05-22T15:59:36Z,male,24,1,2,,,NA,NA,NA,NA,NA,NA,NA,NA,NA,NA,NA,NA,NA,NA,NA,NA,NA,NA,NA,NA,NA,NA,NA,NA,NA,NA,NA,NA,NA,NA,NA,NA,NA,NA,NA,NA,,,0.75
FALSE,2020-05-15T15:56:31Z,2020-05-15T15:59:46Z,2020-05-22T15:59:55Z,female,22,1,2,China,Chinese,3,4,NA,NA,NA,NA,NA,NA,NA,NA,NA,NA,NA,NA,NA,NA,NA,NA,NA,NA,NA,NA,NA,NA,NA,NA,NA,NA,NA,NA,NA,NA,NA,NA,NA,NA,,,0.7083333333333334
TRUE,2020-05-22T15:54:04Z,2020-05-22T16:04:10Z,2020-05-22T16:04:11Z,female,19,3,2,Hong Kong,Chinese,4,4,3,3,3,3,3,4,3,3,2,4,4,3,4,3,5,4,3,4,4,3,4,4,4,3,3,5,5,4,3,3,3,4,3,3,Camila Cabello,Easy,0
FALSE,2020-05-15T16:20:39Z,2020-05-15T16:21:14Z,2020-05-22T16:21:15Z,male,20,3,2,,,NA,NA,NA,NA,NA,NA,NA,NA,NA,NA,NA,NA,NA,NA,NA,NA,NA,NA,NA,NA,NA,NA,NA,NA,NA,NA,NA,NA,NA,NA,NA,NA,NA,NA,NA,NA,,,0.75
TRUE,2020-05-22T16:04:30Z,2020-05-22T17:17:13Z,2020-05-22T17:17:13Z,female,22,3,2,Indonesia,Chinese,1,4,4,5,5,3,1,4,3,4,4,3,3,5,5,3,5,5,4,2,4,4,3,4,4,5,2,5,3,2,2,3,2,3,3,1,Good Charlotte,The motivation proclamation,0
TRUE,2020-05-22T17:41:38Z,2020-05-22T17:49:10Z,2020-05-22T17:49:11Z,male,19,5,1,australia,Persian,1,4,2,4,4,3,3,4,4,3,3,3,4,4,3,5,5,5,4,5,5,5,4,3,5,5,5,5,5,5,4,4,4,4,3,4,Frank Ocean,Pink and White,0
TRUE,2020-05-22T21:35:16Z,2020-05-22T21:44:51Z,2020-05-22T21:44:52Z,male,20,3,2,Hong Kong,Hongkongese,2,5,4,4,4,4,2,4,4,2,4,4,4,4,4,5,5,4,6,5,5,5,4,4,4,4,4,4,5,4,4,4,4,5,4,3,Lewis Capalsi,Before You Go,0
TRUE,2020-05-22T23:30:44Z,2020-05-22T23:37:57Z,2020-05-22T23:37:58Z,male,19,5,1,australia,caucasian,1,5,1,1,1,2,1,5,4,2,1,4,2,2,2,6,5,4,4,5,4,5,2,4,3,5,1,3,5,4,5,5,5,5,2,4,daydream masi,lately,0
TRUE,2020-05-23T00:38:54Z,2020-05-23T00:46:01Z,2020-05-23T00:46:02Z,male,19,5,1,iran,iranian,1,4,4,3,5,4,1,3,4,2,2,4,2,3,3,5,5,4,5,5,3,5,4,3,3,3,1,5,6,4,3,5,4,4,4,3,weekend,blinding lights,0
TRUE,2020-05-23T10:24:27Z,2020-05-23T10:33:28Z,2020-05-23T10:33:29Z,female,20,3,2,Thailand,Asian,3,4,2,4,4,2,4,4,5,2,2,3,4,3,3,6,6,5,3,5,5,5,5,5,3,6,2,6,5,3,2,4,4,4,3,4,Surfaces,24/7/365,0
FALSE,2020-05-16T14:09:38Z,2020-05-16T14:10:01Z,2020-05-23T14:10:26Z,male,18,1,2,,,NA,NA,NA,NA,NA,NA,NA,NA,NA,NA,NA,NA,NA,NA,NA,NA,NA,NA,NA,NA,NA,NA,NA,NA,NA,NA,NA,NA,NA,NA,NA,NA,NA,NA,NA,NA,,,0.75
TRUE,2020-05-23T15:51:33Z,2020-05-23T16:03:47Z,2020-05-23T16:03:47Z,female,19,3,2,Vietnam,Vietnamese,3,4,4,5,5,5,3,2,2,2,4,4,4,2,2,4,6,5,5,4,5,5,6,4,5,4,5,5,5,4,2,4,4,1,4,3,The Paper Kites,Bloom,0
TRUE,2020-05-23T19:42:03Z,2020-05-23T19:52:05Z,2020-05-23T19:52:06Z,female,18,5,1,Australia,Asian,6,4,4,3,3,4,3,4,3,2,4,5,5,2,4,4,5,1,4,1,1,3,2,4,4,1,4,4,1,3,1,4,2,5,2,3,Birds of Tokyo,Good Lord,0
TRUE,2020-05-24T02:49:46Z,2020-05-24T03:13:57Z,2020-05-24T03:13:57Z,female,20,3,2,1,Chinese,5,4,2,4,4,4,3,2,3,2,2,2,2,5,1,4,5,6,6,2,5,6,6,4,3,3,4,5,6,6,1,2,2,5,2,1,,,0
TRUE,2020-05-24T13:50:08Z,2020-05-24T14:11:14Z,2020-05-24T14:11:15Z,female,20,3,2,Malaysia,Malaysian,4,6,4,3,3,4,3,4,3,3,4,4,4,3,3,4,5,4,5,4,5,5,1,4,5,1,1,5,1,4,5,3,3,2,4,4,Jeremy Zucker,"always, i'll care",0
TRUE,2020-05-24T21:45:55Z,2020-05-24T22:02:50Z,2020-05-24T22:02:51Z,female,32,3,2,singapore,indian,5,4,4,4,4,4,4,2,5,5,5,5,5,5,4,5,6,5,6,4,4,5,6,6,6,4,2,6,6,6,2,4,5,4,5,4,justin bieber,love yourself,0
TRUE,2020-05-25T20:41:03Z,2020-05-25T20:44:47Z,2020-05-25T20:44:48Z,female,22,1,2,Chinese,Chinese,1,2,2,3,3,2,4,4,2,3,3,5,4,3,3,3,2,2,2,3,3,4,4,2,1,4,4,5,5,3,2,5,4,3,3,3,Jay,Lemon,0
TRUE,2020-05-25T20:35:30Z,2020-05-25T20:45:09Z,2020-05-25T20:45:10Z,male,18,1,1,Australia,Caucasian,1,5,1,1,4,4,2,5,4,1,1,1,1,1,1,1,6,2,4,4,5,4,2,4,1,1,1,1,6,5,2,1,2,5,2,3,Fallen - Electric,Jaden,0
TRUE,2020-05-25T20:37:23Z,2020-05-25T20:46:38Z,2020-05-25T20:46:39Z,female,19,5,1,Australia,,1,4,2,4,4,4,2,4,3,2,2,4,4,3,2,4,5,4,4,2,4,5,4,4,4,5,1,5,6,4,1,4,2,5,2,2,Peach tree rascals,Not ok,0
TRUE,2020-05-25T20:35:42Z,2020-05-25T20:46:44Z,2020-05-25T20:46:45Z,female,18,1,1,Australia,,2,4,5,4,4,5,3,4,4,5,5,5,5,5,5,2,5,4,2,2,3,3,3,3,4,5,1,5,2,2,2,4,2,4,3,2,Bazzi,Reneeâs Song,0
TRUE,2020-05-25T20:34:43Z,2020-05-25T20:46:50Z,2020-05-25T20:46:50Z,male,19,1,1,Australia,,4,6,4,4,4,4,1,5,3,4,4,4,4,2,2,4,5,4,4,3,5,5,5,5,5,4,1,4,1,4,2,2,2,4,2,2,Justice der,Self Control,0
TRUE,2020-05-25T20:37:07Z,2020-05-25T20:47:29Z,2020-05-25T20:47:30Z,male,21,1,1,Australia,Asian,1,4,5,2,2,2,2,2,2,4,5,5,4,2,2,5,5,5,6,4,5,4,5,6,4,3,1,5,4,5,2,1,3,5,3,4,ChilledCow,lofi hip hop radio,0
TRUE,2020-05-25T20:35:28Z,2020-05-25T20:47:35Z,2020-05-25T20:47:35Z,male,18,1,1,Australia,Chinese,1,4,2,1,2,4,3,5,2,2,2,2,2,2,2,1,5,2,4,2,4,4,4,6,3,3,1,1,4,2,2,1,2,5,2,4,Frank Sinatra,New York New York,0
TRUE,2020-05-25T20:34:41Z,2020-05-25T20:48:21Z,2020-05-25T20:48:22Z,male,18,1,1,Australia,Sri Lankan,1,5,4,4,4,4,4,4,4,4,4,4,4,4,4,4,4,4,4,4,4,4,4,4,4,4,4,4,4,4,5,5,5,5,5,5,Joyner Lucas,Will,0
TRUE,2020-05-25T20:36:27Z,2020-05-25T20:50:48Z,2020-05-25T20:50:48Z,female,18,1,1,Australia,,1,4,1,4,4,2,3,4,5,3,1,1,1,1,1,4,4,2,5,4,5,1,3,3,4,6,1,4,1,5,4,2,4,4,2,2,Fink,Looking too closely,0
TRUE,2020-05-25T20:38:16Z,2020-05-25T20:51:08Z,2020-05-25T20:51:08Z,female,18,5,1,United kingdom,caucasian,1,4,5,5,4,4,1,4,2,2,4,5,5,5,4,1,2,1,6,2,4,3,6,1,2,5,1,1,6,6,3,1,2,3,2,2,,,0
TRUE,2020-05-25T20:38:28Z,2020-05-25T20:52:05Z,2020-05-25T20:52:06Z,female,18,1,1,Australia,Caucasian,1,4,4,2,2,2,4,4,5,2,2,5,5,4,2,3,5,1,3,1,5,5,5,5,1,1,1,1,1,5,1,4,3,4,2,2,D.O,That's okay,0
TRUE,2020-05-25T20:36:21Z,2020-05-25T20:53:32Z,2020-05-25T20:53:32Z,male,17,1,1,Australia,Australian,1,4,1,4,4,4,1,5,5,2,2,1,1,4,1,6,6,5,5,5,5,1,3,2,1,4,1,6,5,3,4,2,4,5,2,4,Marshmello,Light It Up,0
TRUE,2020-05-25T20:44:16Z,2020-05-25T20:53:54Z,2020-05-25T20:53:55Z,female,20,1,1,Australia,South Africa,1,6,2,2,2,3,3,4,4,3,2,4,4,4,2,6,4,5,6,3,6,5,4,4,5,3,1,4,1,1,4,2,4,5,2,4,Arvo Part,Spiegel im Spiegel,0
TRUE,2020-05-25T20:38:50Z,2020-05-25T20:54:01Z,2020-05-25T20:54:01Z,female,20,1,1,Australia,Vietnamese,1,4,5,4,4,5,2,5,2,2,4,5,4,2,5,1,5,4,6,2,5,3,1,4,1,6,1,1,1,6,1,1,1,5,1,1,CHPTES,Obvious,0
TRUE,2020-05-25T20:42:48Z,2020-05-25T20:54:08Z,2020-05-25T20:54:09Z,female,19,1,1,Australia,Caucasian,1,4,2,3,3,3,2,5,5,4,2,4,3,5,3,6,6,6,4,4,4,4,4,5,1,5,1,5,6,4,2,5,2,4,4,4,,,0
TRUE,2020-05-25T20:46:32Z,2020-05-25T20:56:37Z,2020-05-25T20:56:38Z,female,18,1,1,New Zealand,British,1,4,3,2,4,2,3,4,3,3,1,1,3,4,3,3,5,3,3,3,4,3,4,4,4,4,2,1,1,5,3,2,3,4,4,3,BTS,Answer : Love Myself,0
TRUE,2020-05-25T20:49:56Z,2020-05-25T20:58:25Z,2020-05-25T20:58:25Z,female,1998,1,2,Singapore,Chinese,6,4,4,5,4,5,1,5,2,3,3,5,5,5,4,6,6,5,6,6,6,5,6,6,5,4,1,5,5,6,5,5,4,5,1,5,,,0
TRUE,2020-05-25T20:56:23Z,2020-05-25T21:03:44Z,2020-05-25T21:03:45Z,female,18,5,1,Malaysia,Chinese,1,4,4,4,4,4,3,5,5,4,4,4,4,4,3,2,5,2,4,4,5,5,5,2,2,3,1,1,3,4,2,3,4,5,2,2,Sasha Sloan,Keep On,0
TRUE,2020-05-25T20:58:16Z,2020-05-25T21:14:12Z,2020-05-25T21:14:12Z,female,19,1,2,Hong kong,Chinese,1,4,3,4,4,4,3,4,3,2,2,4,3,3,3,4,4,4,4,3,3,3,4,3,4,4,5,5,4,4,1,2,4,4,4,2,Lauren diagle,You say,0
TRUE,2020-05-25T21:04:57Z,2020-05-25T21:15:59Z,2020-05-25T21:15:59Z,female,19,1,1,Australia and the UK,Caucasian,5,4,3,5,4,4,1,4,3,2,3,4,4,4,4,3,5,5,3,2,4,4,5,4,3,6,1,5,5,5,2,3,3,2,3,3,Rothwell,Darling,0
TRUE,2020-05-25T21:06:23Z,2020-05-25T21:16:25Z,2020-05-25T21:16:25Z,female,19,1,2,Brazil,Caucasian,3,4,1,5,5,2,1,5,5,5,1,3,2,3,1,5,6,3,5,4,5,5,2,2,6,5,1,4,6,5,1,5,3,2,5,2,Jeremy Passion,Lemonade,0
TRUE,2020-05-25T21:13:24Z,2020-05-25T21:20:10Z,2020-05-25T21:20:10Z,female,19,1,1,"Australia, Great Britain",White,1,5,2,5,4,4,5,5,5,3,2,5,4,2,1,4,5,2,4,5,5,5,5,5,4,5,1,4,4,4,2,2,2,4,3,4,Walking in the air,Aled jones,0
TRUE,2020-05-25T21:11:28Z,2020-05-25T21:21:07Z,2020-05-25T21:21:08Z,male,18,1,1,New Zealand,Indian,1,4,3,2,2,2,2,5,3,4,3,4,3,2,2,4,6,4,4,3,3,2,4,2,1,4,1,4,3,6,3,3,5,4,1,4,NF,Let me go,0
TRUE,2020-05-25T21:02:09Z,2020-05-25T21:22:57Z,2020-05-25T21:22:57Z,female,18,1,1,Germany / Australia,German / Australian,1,4,2,5,5,3,2,5,5,2,2,2,2,4,2,1,5,5,5,3,3,3,3,6,3,6,1,4,6,6,1,2,2,2,4,2,Ashe,In Disguise,0
TRUE,2020-05-25T20:45:09Z,2020-05-25T21:37:54Z,2020-05-25T21:37:54Z,female,22,1,2,Singapore,Singaporean Chinese,1,4,4,5,3,4,5,4,1,2,3,4,3,2,1,1,5,1,5,4,4,1,5,4,4,4,1,1,6,5,4,1,3,2,4,2,JJ Lin,The Story of Us,0
TRUE,2020-05-25T21:40:19Z,2020-05-25T21:48:00Z,2020-05-25T21:48:00Z,male,18,1,1,Australia,Australian,1,4,1,1,3,1,1,3,2,1,1,1,1,1,1,6,5,6,4,2,3,4,3,1,5,6,1,6,6,1,4,5,4,5,3,4,Travis Scott,Apple Pie,0
TRUE,2020-05-25T22:22:58Z,2020-05-25T22:40:57Z,2020-05-25T22:40:57Z,female,19,1,2,China,Buddhism,3,4,3,4,3,3,3,3,3,4,3,3,3,3,3,4,5,4,6,4,5,5,5,4,5,5,5,4,5,5,1,1,2,1,3,4,Skylar Grey,coming home,0
TRUE,2020-05-25T22:39:58Z,2020-05-25T22:47:55Z,2020-05-25T22:47:56Z,female,18,1,1,Australia,Na,1,6,1,4,4,4,1,5,4,1,1,3,3,1,1,6,3,4,4,1,4,4,6,4,1,4,1,4,4,4,1,5,4,3,3,1,,,0
TRUE,2020-05-25T22:45:27Z,2020-05-25T22:55:08Z,2020-05-25T22:55:08Z,female,18,1,1,Australia,Australian,1,4,1,1,4,4,1,4,2,2,3,3,3,5,2,4,6,2,5,3,2,2,6,5,5,6,6,6,5,3,4,2,3,1,4,4,Hillsong,Every Little Thing,0
TRUE,2020-05-25T22:39:43Z,2020-05-25T23:06:11Z,2020-05-25T23:06:12Z,male,21,1,1,Australia,African,1,5,1,1,1,1,1,4,5,4,1,1,1,1,1,1,6,4,4,6,5,5,4,5,1,4,1,1,1,1,5,1,1,5,5,5,100 gecs,ringtone,0
TRUE,2020-05-26T00:29:39Z,2020-05-26T00:38:23Z,2020-05-26T00:38:24Z,female,18,1,1,Australia,Australian/Caucasian,3,4,2,5,4,4,3,2,1,4,4,4,4,2,4,5,5,5,6,4,4,6,5,2,4,6,1,6,6,6,4,2,2,4,5,5,Surfaces,24/7/365,0
TRUE,2020-05-26T03:40:26Z,2020-05-26T03:50:12Z,2020-05-26T03:50:13Z,female,19,1,2,Japan,Japanese,5,5,5,5,5,5,5,5,5,2,3,5,5,5,5,5,6,3,6,6,5,5,5,3,4,3,3,6,6,6,2,5,3,5,2,2,Kayden,You don't care anymore,0
TRUE,2020-05-26T06:37:22Z,2020-05-26T06:48:08Z,2020-05-26T06:48:08Z,female,18,1,1,Australia,Croatian,1,4,2,4,4,4,5,5,1,3,2,4,2,2,2,6,5,3,3,4,5,5,6,6,4,6,1,3,3,4,3,5,4,4,4,5,Oliver Dragojevic,Kad Mi DoÄeÅ¡ Ti,0
TRUE,2020-05-26T07:27:21Z,2020-05-26T07:38:24Z,2020-05-26T07:38:25Z,male,18,1,1,Australia,,1,5,4,4,4,4,3,4,5,5,4,4,4,4,3,5,4,3,3,2,4,3,5,5,3,3,1,1,1,1,2,4,4,5,4,4,Carpenters,Top of the World,0
TRUE,2020-05-26T07:56:59Z,2020-05-26T08:03:03Z,2020-05-26T08:03:03Z,female,18,1,1,Australia,-,1,4,4,5,5,5,1,5,5,5,2,5,5,2,2,3,5,4,6,1,4,1,1,6,1,4,1,4,1,4,1,3,2,4,2,1,,,0
TRUE,2020-05-26T08:03:01Z,2020-05-26T08:15:03Z,2020-05-26T08:15:03Z,female,18,1,1,"Australia, USA",Australian,1,4,2,4,2,3,2,4,3,2,3,4,4,4,4,5,5,4,4,1,4,1,4,4,5,5,1,1,5,1,2,5,4,4,4,2,,,0
TRUE,2020-05-26T08:49:48Z,2020-05-26T08:57:30Z,2020-05-26T08:57:30Z,female,24,5,1,Australia,Australian,2,5,1,2,1,4,1,5,5,2,1,4,4,1,1,5,6,6,2,2,3,5,4,5,6,4,1,4,6,4,2,4,4,2,3,1,Alec Benjamin,Must have been the wind,0
TRUE,2020-05-26T09:04:05Z,2020-05-26T09:11:50Z,2020-05-26T09:11:51Z,female,18,1,1,Australia,,1,4,2,2,4,2,3,4,5,4,2,2,2,2,2,6,4,4,4,2,2,2,2,2,4,2,1,5,4,3,2,4,4,5,4,4,,,0
TRUE,2020-05-26T09:31:25Z,2020-05-26T09:41:11Z,2020-05-26T09:41:12Z,male,18,1,1,Australia,Australian,1,4,2,2,4,2,1,4,4,2,1,1,1,1,1,6,4,3,3,4,3,3,4,2,1,5,1,5,5,5,2,5,4,4,3,3,,,0
TRUE,2020-05-26T09:31:47Z,2020-05-26T09:43:43Z,2020-05-26T09:43:44Z,female,18,1,1,Australia,,1,4,3,3,3,4,3,4,5,3,4,4,4,2,1,5,5,4,6,4,4,4,4,5,1,6,1,5,1,6,4,5,4,2,4,4,,,0
TRUE,2020-05-26T09:28:58Z,2020-05-26T09:46:07Z,2020-05-26T09:46:07Z,male,18,1,1,Australia,Asian,1,4,3,3,3,3,3,4,3,3,2,4,4,3,3,1,5,5,5,5,5,4,3,5,1,5,1,1,1,5,2,2,2,4,4,2,Day6,Zombie,0
TRUE,2020-05-26T09:51:15Z,2020-05-26T10:07:30Z,2020-05-26T10:07:30Z,male,19,1,1,Australia,N/A,1,4,2,2,2,2,2,3,5,5,2,2,2,2,2,5,5,4,6,4,5,5,3,2,1,5,5,5,1,4,2,4,1,4,3,2,Gorillaz,Feel Good,0
TRUE,2020-05-26T10:08:22Z,2020-05-26T10:23:56Z,2020-05-26T10:23:56Z,male,18,1,1,"Australia, UK",,1,4,1,3,2,2,2,5,5,5,1,4,1,2,1,4,4,2,3,4,1,5,2,3,5,3,2,5,2,2,5,1,3,4,1,5,Cigarettes after sex,K,0
TRUE,2020-05-26T10:27:17Z,2020-05-26T10:37:29Z,2020-05-26T10:37:30Z,female,21,1,1,Australia/Germany,Australian,3,4,4,5,5,4,2,5,5,5,2,4,4,2,1,4,5,6,5,4,4,5,2,5,4,6,1,6,6,6,1,4,1,4,4,1,Aurora,Exist for Love,0
TRUE,2020-05-26T10:32:38Z,2020-05-26T10:44:48Z,2020-05-26T10:44:49Z,female,22,1,1,Australia,,3,5,4,3,4,3,3,5,5,5,4,5,4,3,2,4,3,3,4,3,4,3,4,6,1,4,1,4,4,3,1,2,3,5,1,2,The Cinematic Orchestra,To Build a Home,0
TRUE,2020-05-26T10:55:46Z,2020-05-26T11:06:33Z,2020-05-26T11:06:34Z,male,18,1,1,Australia,Australian,1,5,2,2,4,3,2,4,2,2,2,2,2,2,2,1,4,3,2,2,4,4,3,4,1,1,1,4,2,4,2,2,2,5,2,1,David Bowie,Heroes,0
TRUE,2020-05-26T11:03:53Z,2020-05-26T11:15:54Z,2020-05-26T11:15:54Z,female,18,1,1,Australia,Australian,1,4,4,4,4,4,2,4,4,4,4,4,4,4,2,6,5,4,5,4,5,6,4,5,3,4,1,4,1,1,5,5,4,5,2,4,Natasha Bedingfield,Unwritten,0
TRUE,2020-05-26T11:16:01Z,2020-05-26T11:23:44Z,2020-05-26T11:23:44Z,female,19,1,1,Australia,Australian,1,4,2,2,4,4,1,5,2,2,3,4,4,4,2,4,5,2,4,4,3,1,1,5,5,1,1,1,1,4,4,4,4,5,2,2,The Cat Empire,Miserere,0
TRUE,2020-05-26T10:34:50Z,2020-05-26T11:32:32Z,2020-05-26T11:32:33Z,male,19,1,1,"Australia, United Kingdom",None,1,4,3,4,4,3,3,5,3,4,3,3,3,3,3,5,4,2,4,4,3,3,3,4,4,2,2,4,4,3,4,2,2,5,2,3,Coldplay,Midnight,0
TRUE,2020-05-26T11:34:33Z,2020-05-26T11:48:46Z,2020-05-26T11:48:46Z,female,18,1,1,Australia,Australian,1,4,2,4,5,2,1,5,5,5,2,4,2,2,2,3,6,1,6,1,3,1,4,5,1,1,1,6,1,4,1,1,2,5,1,2,Lennon Stella,Kissing Other People,0
TRUE,2020-05-26T11:50:17Z,2020-05-26T11:57:30Z,2020-05-26T11:57:31Z,female,20,1,1,Australia,Australian-Filipino,2,4,5,5,5,5,1,5,5,5,3,4,4,4,1,4,6,4,6,5,2,3,6,5,6,4,1,5,6,6,3,3,1,5,3,3,Noah Cyrus,Young and Sad,0
TRUE,2020-05-26T11:56:43Z,2020-05-26T12:08:06Z,2020-05-26T12:08:06Z,female,18,1,1,"Australia, the Netherlands",,1,4,3,4,4,4,1,5,2,2,2,3,3,3,2,6,6,5,3,4,5,5,4,3,4,6,6,5,1,4,4,4,4,4,4,4,San Sisco,On the line,0
TRUE,2020-05-26T12:05:31Z,2020-05-26T12:35:53Z,2020-05-26T12:35:54Z,female,18,1,1,Papua New Guinea,Pacific Islander,2,6,3,5,4,4,3,4,5,3,3,3,3,3,3,6,4,5,5,4,5,5,2,4,6,5,1,6,4,2,5,5,5,4,2,3,Bob Marley,Could You Be Loved,0
TRUE,2020-05-26T12:32:34Z,2020-05-26T12:38:49Z,2020-05-26T12:38:49Z,female,18,1,1,Australian,Australian,1,5,2,4,4,2,1,4,4,3,3,3,3,3,3,4,5,4,6,4,4,5,5,6,4,4,1,5,5,5,2,4,3,5,2,3,Nickleback,If Today Was Your Last Day,0
TRUE,2020-05-26T12:27:48Z,2020-05-26T12:43:49Z,2020-05-26T12:43:49Z,prefer not to say,68,5,2,"Albania, Ukrain, Serbia",IRA,2,6,1,1,1,1,1,1,1,1,1,1,1,1,1,1,1,1,1,1,6,1,1,6,1,1,1,1,1,1,1,5,5,5,5,5,get,fucked,0
TRUE,2020-05-26T12:44:29Z,2020-05-26T12:51:20Z,2020-05-26T12:51:21Z,prefer not to say,25,5,1,Algeria,Islam,2,6,1,1,1,1,1,1,1,1,1,1,1,1,1,2,2,2,2,2,2,2,2,2,2,2,2,2,2,2,NA,NA,NA,NA,NA,NA,fuck,off,0.125
TRUE,2020-05-26T14:15:45Z,2020-05-26T14:32:26Z,2020-05-26T14:32:27Z,male,21,5,1,"Australia, Ireland",Irish Australian,1,5,3,4,4,2,1,5,5,5,3,4,3,3,3,6,3,6,2,6,6,6,2,4,2,6,1,4,2,4,2,5,4,2,4,4,Zedd,Clarity ft. Foxes,0
TRUE,2020-05-26T14:50:34Z,2020-05-26T15:02:38Z,2020-05-26T15:02:39Z,female,18,5,1,Australia and Turkey,,1,4,4,2,3,4,4,4,3,2,4,4,3,4,2,4,5,4,5,5,3,5,4,5,5,4,1,5,4,5,2,4,3,3,3,3,ABBA,Angel eyes,0
TRUE,2020-05-26T14:59:06Z,2020-05-26T15:09:31Z,2020-05-26T15:09:31Z,female,20,1,1,Australia and Hong Kong,Chinese,3,4,4,2,4,2,3,4,3,3,4,4,4,4,3,6,6,4,6,4,5,4,3,3,4,1,5,5,5,4,2,3,4,4,4,3,,,0
TRUE,2020-05-26T15:10:52Z,2020-05-26T15:36:49Z,2020-05-26T15:36:49Z,female,43,5,1,Australia,Australian,2,6,5,5,5,5,3,4,5,3,4,4,4,4,4,4,6,2,4,3,1,4,5,5,5,4,1,4,4,5,4,4,4,4,1,2,Pharell Williams,Happy,0
TRUE,2020-05-26T15:33:25Z,2020-05-26T15:42:33Z,2020-05-26T15:42:34Z,male,18,1,1,Australia,,1,4,2,3,3,2,3,5,5,4,2,4,4,2,1,3,5,5,3,2,4,4,5,2,2,2,1,5,5,3,3,3,3,5,2,3,Luke Combs,When it Rains it Pours,0
TRUE,2020-05-26T15:42:02Z,2020-05-26T15:54:02Z,2020-05-26T15:54:02Z,female,18,1,1,Australia,,1,5,2,2,4,2,1,2,4,4,2,2,1,1,1,4,6,4,5,5,4,5,3,3,5,4,1,4,4,5,2,4,4,5,4,3,Chase Atlantic,Swim,0
TRUE,2020-05-26T16:03:44Z,2020-05-26T16:15:50Z,2020-05-26T16:15:50Z,female,19,1,2,Sri Lanka,Sinhalese/Tamil,6,4,3,3,4,4,3,5,3,2,4,3,4,4,3,4,6,4,5,4,1,4,5,4,1,5,1,1,6,5,4,2,4,4,4,3,Shaun,Way back home,0
TRUE,2020-05-26T16:12:10Z,2020-05-26T16:25:05Z,2020-05-26T16:25:05Z,male,20,1,2,malaysia,chinese,2,4,4,2,2,2,3,5,5,5,4,2,2,2,2,5,3,4,1,3,5,5,1,1,3,5,2,3,5,4,4,5,4,2,4,2,Wiz Khalifa,"Young, Wild and Free",0
TRUE,2020-05-26T16:29:23Z,2020-05-26T16:38:39Z,2020-05-26T16:38:40Z,female,18,1,1,Australia,Catholic,1,4,2,2,2,2,1,2,2,2,2,2,2,2,2,5,2,3,4,4,4,4,5,5,5,5,4,6,5,5,2,4,4,2,4,2,,,0
TRUE,2020-05-26T16:23:39Z,2020-05-26T16:45:12Z,2020-05-26T16:45:12Z,female,20,1,2,Australia,no,2,4,1,2,4,5,5,5,5,4,5,5,5,5,5,1,4,4,5,2,1,1,5,6,3,1,1,6,6,6,3,1,1,3,3,4,Yo-Yo Ma,"Cello Suite No. 1 in G Major, BWV 1007:I. PrÃ©lude",0
TRUE,2020-05-26T17:37:26Z,2020-05-26T17:54:32Z,2020-05-26T17:54:33Z,male,20,1,2,Hong Kong,Hongkongers,5,4,5,5,5,5,2,3,5,2,5,5,5,4,4,3,6,3,4,4,6,6,6,6,2,6,1,5,6,6,3,4,4,5,4,4,Taylor Swift,Any,0
TRUE,2020-05-26T19:23:04Z,2020-05-26T19:36:46Z,2020-05-26T19:36:46Z,male,20,1,2,Indian,Indian,6,4,5,2,2,5,1,2,2,5,5,5,5,5,5,4,5,3,5,2,5,1,5,2,5,5,5,1,5,5,2,2,2,5,4,2,namirin,Renai Circulation,0
TRUE,2020-05-26T20:18:25Z,2020-05-26T20:28:26Z,2020-05-26T20:28:26Z,male,18,5,1,Australia,anglo-saxon/caucasian,2,4,2,2,2,3,2,4,3,2,2,4,2,2,4,5,4,5,4,3,3,4,3,3,5,1,1,5,4,5,4,1,2,5,1,2,Simple Plan,Jet Lag,0
TRUE,2020-05-26T20:17:31Z,2020-05-26T20:31:17Z,2020-05-26T20:31:17Z,female,21,1,1,Australia,Hong Konger,1,4,4,2,4,5,4,5,3,2,4,4,4,4,4,3,6,4,4,4,4,2,3,6,4,5,1,4,4,4,2,2,4,3,4,4,Bruno Major,Easily,0
TRUE,2020-05-26T19:19:36Z,2020-05-27T00:29:43Z,2020-05-27T00:29:44Z,male,2,1,2,australia,,3,4,3,3,3,3,3,3,3,3,3,3,3,3,3,4,4,4,4,4,4,4,4,4,4,4,4,4,4,4,3,3,3,3,3,3,Taylor swift,Style,0
TRUE,2020-05-27T00:35:53Z,2020-05-27T00:44:33Z,2020-05-27T00:44:33Z,male,18,1,1,Australi,European descent?,4,6,2,2,2,2,2,3,3,4,1,2,2,2,2,5,6,4,5,5,6,5,5,4,3,4,2,6,4,5,2,5,4,4,4,4,Frank Ocean,Ivy,0
TRUE,2020-05-27T05:35:32Z,2020-05-27T05:45:00Z,2020-05-27T05:45:00Z,female,19,1,1,Malaysia,,1,4,2,3,3,3,3,4,1,1,3,4,4,3,3,4,5,4,4,4,5,4,5,4,1,5,1,5,5,5,1,3,2,5,2,3,,,0
TRUE,2020-05-27T07:42:46Z,2020-05-27T07:53:31Z,2020-05-27T07:53:31Z,female,18,1,1,Australia,,1,4,1,3,2,2,1,4,2,1,2,4,4,3,1,6,5,1,1,4,4,2,1,3,3,1,1,3,1,4,2,4,2,4,4,3,I don't have a particular artist just listen to a playlist of my favourite songs or upbeat songs,,0
TRUE,2020-05-27T12:34:53Z,2020-05-27T12:42:22Z,2020-05-27T12:42:23Z,female,18,1,1,Australia,Caucasian,1,5,2,4,5,2,4,5,5,5,2,2,3,2,2,4,5,1,6,5,5,5,5,4,5,3,1,5,5,5,2,4,2,5,2,2,,,0
FALSE,2020-05-20T12:50:17Z,2020-05-20T12:52:05Z,2020-05-27T12:52:17Z,female,17,5,1,Australia and United Kingdom,White? Australian/British,1,5,1,1,4,1,1,5,5,4,1,1,1,1,1,NA,NA,NA,NA,NA,NA,NA,NA,NA,NA,NA,NA,NA,NA,NA,NA,NA,NA,NA,NA,NA,,,0.4375
TRUE,2020-05-27T13:37:25Z,2020-05-27T13:50:35Z,2020-05-27T13:50:36Z,female,17,1,1,Australia,Australian,1,4,1,1,4,4,1,4,4,1,4,4,1,1,1,4,6,6,4,4,4,4,6,5,5,6,1,6,5,1,3,3,4,2,1,3,Salt 'n' Peppa,Shoop,0
TRUE,2020-05-27T15:24:59Z,2020-05-27T16:06:10Z,2020-05-27T16:06:11Z,female,18,1,1,Australia,South Korean,1,4,4,4,4,4,1,5,3,2,5,5,5,4,5,1,4,5,5,5,6,5,2,2,1,6,4,2,1,5,1,2,3,1,2,2,IU,Eight,0
TRUE,2020-05-27T17:28:20Z,2020-05-27T17:37:39Z,2020-05-27T17:37:40Z,female,19,1,1,Australia,Chinese/Kiwi,1,6,3,2,2,2,1,5,4,3,3,4,3,2,1,5,5,2,5,2,2,2,2,2,1,1,1,1,6,2,3,5,2,5,1,2,Chopin,any of his pieces,0
TRUE,2020-05-27T17:41:57Z,2020-05-27T17:52:38Z,2020-05-27T17:52:39Z,male,17,1,1,Australia,N/A,1,4,1,2,2,2,1,2,4,2,1,4,1,1,1,6,5,1,4,5,5,5,4,4,1,6,1,1,1,1,4,5,5,2,4,4,No specific artist,No specific song - just the âlofiâ genre of music,0
FALSE,2020-05-20T18:44:56Z,2020-05-20T18:48:44Z,2020-05-27T18:48:56Z,female,20,1,1,Australia/ Taiwan,Chinese,1,5,4,5,3,3,3,5,3,3,3,3,3,4,3,NA,NA,NA,NA,NA,NA,NA,NA,NA,NA,NA,NA,NA,NA,NA,NA,NA,NA,NA,NA,NA,,,0.4375
TRUE,2020-05-28T06:14:57Z,2020-05-28T06:33:33Z,2020-05-28T06:33:35Z,male,19,1,2,Malaysia,Chinese,4,4,3,3,3,3,2,3,3,2,3,4,4,3,3,4,5,6,2,2,5,5,6,6,5,1,3,4,1,1,4,2,4,1,2,3,Joe Hisaishi,The Bygone Days,0
TRUE,2020-05-27T17:28:24Z,2020-05-28T08:42:40Z,2020-05-28T08:42:41Z,female,18,1,1,Australia,Australian,1,4,3,3,4,3,1,4,5,5,3,4,4,3,3,4,6,5,2,1,3,4,5,6,1,1,1,4,5,6,2,3,4,2,3,2,do re mi,blackbear,0
TRUE,2020-05-28T10:02:51Z,2020-05-28T10:34:55Z,2020-05-28T10:34:55Z,female,18,1,1,"Australia, Germany",German,5,4,4,2,2,4,1,4,3,3,3,3,3,3,2,6,6,1,4,3,1,1,5,5,1,4,1,5,1,4,1,4,2,5,2,3,Demi Lovato,Wildfire,0
FALSE,2020-05-21T15:35:53Z,2020-05-21T15:41:56Z,2020-05-28T15:42:00Z,female,19,3,2,Malaysia,Indian,3,3,4,2,1,1,1,5,5,3,4,5,3,3,5,4,1,3,2,4,4,4,1,5,3,2,1,4,5,1,NA,NA,NA,NA,NA,NA,,,0.125
FALSE,2020-05-21T15:48:16Z,2020-05-21T15:49:08Z,2020-05-28T15:49:09Z,female,20,3,2,,,NA,NA,NA,NA,NA,NA,NA,NA,NA,NA,NA,NA,NA,NA,NA,NA,NA,NA,NA,NA,NA,NA,NA,NA,NA,NA,NA,NA,NA,NA,NA,NA,NA,NA,NA,NA,,,0.75
FALSE,2020-05-21T16:22:46Z,2020-05-21T16:30:38Z,2020-05-28T16:30:42Z,female,25,3,2,South Korea,South Korea,3,4,3,4,3,4,3,4,4,4,2,2,2,3,3,4,4,4,5,5,5,5,4,4,4,4,4,3,3,3,NA,NA,NA,NA,NA,NA,,,0.125
TRUE,2020-05-28T16:31:39Z,2020-05-28T16:53:10Z,2020-05-28T16:53:10Z,female,19,1,1,Australia and the USA,European-Australian,1,4,4,3,3,2,3,2,2,2,2,3,3,2,3,4,5,4,4,4,5,5,3,4,1,5,5,4,1,4,4,4,4,4,4,4,Lauren Daigle,Look up child,0
TRUE,2020-05-29T04:10:25Z,2020-05-29T04:31:50Z,2020-05-29T04:31:50Z,male,27,3,2,Singapore,Eurasian,2,4,2,4,2,2,2,4,3,3,2,4,4,2,2,5,6,4,6,4,5,4,3,5,4,5,1,5,5,3,2,4,4,5,4,4,Father's Children,Dirt and Grime,0
FALSE,2020-05-22T12:08:59Z,2020-05-22T12:10:06Z,2020-05-29T12:10:07Z,male,19,5,2,China,Crist,2,4,NA,NA,NA,NA,NA,NA,NA,NA,NA,NA,NA,NA,NA,NA,NA,NA,NA,NA,NA,NA,NA,NA,NA,NA,NA,NA,NA,NA,NA,NA,NA,NA,NA,NA,,,0.7083333333333334
TRUE,2020-05-29T11:57:31Z,2020-05-29T12:18:09Z,2020-05-29T12:18:10Z,female,18,1,1,Pakistan and Australia,Asian,1,4,2,2,2,2,4,2,2,3,3,3,3,4,3,6,6,6,6,4,5,5,5,5,6,6,4,5,4,4,3,5,4,3,3,3,BTS,Magic Shop (but almost all their songs are effective),0
FALSE,2020-05-22T14:46:58Z,2020-05-22T14:47:38Z,2020-05-29T14:47:41Z,male,20,3,2,China,Chinese,6,NA,NA,NA,NA,NA,NA,NA,NA,NA,NA,NA,NA,NA,NA,NA,NA,NA,NA,NA,NA,NA,NA,NA,NA,NA,NA,NA,NA,NA,NA,NA,NA,NA,NA,NA,,,0.7291666666666666
FALSE,2020-05-22T20:08:56Z,2020-05-22T20:09:57Z,2020-05-29T20:10:19Z,female,25,3,2,South korea,,3,5,NA,NA,NA,NA,NA,NA,NA,NA,NA,NA,NA,NA,NA,NA,NA,NA,NA,NA,NA,NA,NA,NA,NA,NA,NA,NA,NA,NA,NA,NA,NA,NA,NA,NA,,,0.7083333333333334
TRUE,2020-05-30T11:54:38Z,2020-05-30T12:50:23Z,2020-05-30T12:50:24Z,female,20,1,1,Australia,Australian,1,4,4,3,4,3,4,4,2,5,2,2,2,2,2,3,3,1,6,1,2,1,5,4,1,4,1,1,5,3,4,4,2,4,2,3,,,0
FALSE,2020-05-23T18:40:39Z,2020-05-23T18:42:17Z,2020-05-30T18:42:42Z,female,24,3,2,Brazil,south american,2,4,NA,NA,NA,NA,NA,NA,NA,NA,NA,NA,NA,NA,NA,NA,NA,NA,NA,NA,NA,NA,NA,NA,NA,NA,NA,NA,NA,NA,NA,NA,NA,NA,NA,NA,,,0.7083333333333334
TRUE,2020-05-31T11:42:43Z,2020-05-31T11:52:39Z,2020-05-31T11:52:40Z,female,21,3,2,Indonesia,Javanese,5,4,4,4,4,4,4,5,2,2,4,5,4,5,3,4,4,5,5,3,4,5,2,3,4,4,1,5,4,4,2,4,4,4,2,2,Joy Crookes,Anyone But Me,0
TRUE,2020-05-31T18:02:09Z,2020-05-31T18:14:43Z,2020-05-31T18:14:43Z,male,17,1,1,Australia,Caucasian,3,4,1,2,3,1,1,5,3,2,1,1,1,1,1,6,4,4,6,6,5,5,6,4,1,5,6,6,1,4,4,3,2,5,1,5,,,0
TRUE,2020-05-31T23:04:39Z,2020-05-31T23:18:24Z,2020-05-31T23:18:24Z,female,19,1,2,Taiwan (Republic of China),/,1,4,5,5,5,5,5,5,5,5,5,5,5,5,5,1,4,3,1,1,1,1,1,3,1,1,1,1,1,1,3,1,1,4,2,1,lironghao,balled,0
TRUE,2020-06-01T01:23:03Z,2020-06-01T01:29:37Z,2020-06-01T01:29:38Z,female,20,1,2,China,,3,4,3,5,5,5,1,2,1,2,2,2,2,2,2,1,1,1,6,6,1,3,NA,6,1,2,2,3,3,3,1,2,1,1,1,1,,,0.020833333333333332
TRUE,2020-06-01T15:58:48Z,2020-06-01T16:10:04Z,2020-06-01T16:10:05Z,female,18,5,1,Australia,Australian,1,4,1,1,2,1,3,4,3,3,1,1,1,1,1,3,5,1,4,2,2,2,3,4,3,3,1,5,3,5,2,1,1,5,1,1,matisse and sadko,get busy,0
FALSE,2020-05-25T20:35:12Z,2020-05-25T20:36:16Z,2020-06-01T20:36:17Z,male,18,1,1,Australia,N/A,1,5,NA,NA,NA,NA,NA,NA,NA,NA,NA,NA,NA,NA,NA,NA,NA,NA,NA,NA,NA,NA,NA,NA,NA,NA,NA,NA,NA,NA,NA,NA,NA,NA,NA,NA,,,0.7083333333333334
FALSE,2020-05-25T20:34:53Z,2020-05-25T20:42:40Z,2020-06-01T20:43:19Z,female,18,5,1,New Zealand,Indian,1,4,5,5,2,5,3,5,3,4,4,4,4,4,5,4,5,5,6,5,6,6,6,5,6,6,3,6,6,5,NA,NA,NA,NA,NA,NA,Don Omar,Danza Kuduro,0.125
FALSE,2020-05-25T20:37:02Z,2020-05-25T20:43:28Z,2020-06-01T20:43:38Z,male,19,1,2,Canada,Phillipines,5,4,3,3,3,3,3,5,5,5,3,5,5,3,5,3,4,5,1,2,1,2,2,2,2,3,1,1,3,5,NA,NA,NA,NA,NA,NA,RINI,Favourite Clothes,0.125
FALSE,2020-05-25T20:42:44Z,2020-05-25T20:43:56Z,2020-06-01T20:44:00Z,male,20,1,1,Australia,What does it matter?,1,4,NA,NA,NA,NA,NA,NA,NA,NA,NA,NA,NA,NA,NA,NA,NA,NA,NA,NA,NA,NA,NA,NA,NA,NA,NA,NA,NA,NA,NA,NA,NA,NA,NA,NA,,,0.7083333333333334
FALSE,2020-05-25T20:44:03Z,2020-05-25T20:51:36Z,2020-06-01T20:51:50Z,female,20,1,2,Hong Kong,Hong Kong,2,4,4,4,4,4,2,3,3,3,4,4,4,4,4,1,4,3,4,4,3,3,5,5,4,4,1,1,2,3,NA,NA,NA,NA,NA,NA,Carla Bruni,Little French Song,0.125
FALSE,2020-05-25T20:51:09Z,2020-05-25T20:58:12Z,2020-06-01T20:58:29Z,female,19,1,2,Hong Kong (SAR),Chinese,1,4,4,5,4,4,3,3,3,2,3,4,3,3,4,NA,NA,NA,NA,NA,NA,NA,NA,NA,NA,NA,NA,NA,NA,NA,NA,NA,NA,NA,NA,NA,,,0.4375
FALSE,2020-05-25T21:00:32Z,2020-05-25T21:04:51Z,2020-06-01T21:04:57Z,female,19,1,1,Australia and UK,Caucasian,5,4,4,5,4,4,1,3,1,2,3,4,3,4,4,NA,NA,NA,NA,NA,NA,NA,NA,NA,NA,NA,NA,NA,NA,NA,NA,NA,NA,NA,NA,NA,,,0.4375
FALSE,2020-05-25T21:25:11Z,2020-05-25T21:27:00Z,2020-06-01T21:27:03Z,female,19,1,2,China,No,2,4,3,3,3,3,3,3,3,3,3,3,3,3,3,NA,NA,NA,NA,NA,NA,NA,NA,NA,NA,NA,NA,NA,NA,NA,NA,NA,NA,NA,NA,NA,,,0.4375
FALSE,2020-05-25T21:26:57Z,2020-05-25T21:32:21Z,2020-06-01T21:32:21Z,male,18,1,1,Australia,White Australian,1,5,4,3,3,4,3,4,2,3,4,5,5,3,2,NA,NA,NA,NA,NA,NA,NA,NA,NA,NA,NA,NA,NA,NA,NA,NA,NA,NA,NA,NA,NA,,,0.4375
FALSE,2020-05-25T21:57:28Z,2020-05-25T21:58:33Z,2020-06-01T21:59:08Z,female,19,1,2,Taiwan,,1,4,NA,NA,NA,NA,NA,NA,NA,NA,NA,NA,NA,NA,NA,NA,NA,NA,NA,NA,NA,NA,NA,NA,NA,NA,NA,NA,NA,NA,NA,NA,NA,NA,NA,NA,,,0.7083333333333334
FALSE,2020-05-25T21:56:29Z,2020-05-25T22:09:49Z,2020-06-01T22:10:12Z,male,20,1,2,HONG KONG,All can be,3,4,1,4,4,3,3,4,3,4,3,4,3,1,1,NA,NA,NA,NA,NA,NA,NA,NA,NA,NA,NA,NA,NA,NA,NA,NA,NA,NA,NA,NA,NA,,,0.4375
FALSE,2020-05-25T23:29:43Z,2020-05-25T23:33:59Z,2020-06-01T23:34:20Z,male,18,5,1,Australia,Punjabi,1,4,3,4,4,4,3,5,5,4,3,4,4,3,3,4,3,4,2,1,NA,NA,NA,NA,NA,NA,NA,NA,NA,NA,NA,NA,NA,NA,NA,NA,,,0.3333333333333333
FALSE,2020-05-25T20:34:59Z,2020-05-25T23:55:52Z,2020-06-01T23:55:53Z,female,18,1,1,Australia,Indian,1,5,3,4,4,4,1,5,5,2,2,2,2,2,2,5,6,3,6,4,3,5,5,6,5,4,2,5,3,3,NA,NA,NA,NA,NA,NA,,,0.125
TRUE,2020-06-02T12:22:02Z,2020-06-02T12:31:27Z,2020-06-02T12:31:28Z,female,18,1,1,"Australia, Hungary, Romania",Hungarian,1,6,4,5,4,4,3,5,4,3,2,2,2,4,2,1,2,5,1,5,6,6,6,6,3,5,1,5,4,4,1,4,2,4,4,2,,,0
FALSE,2020-05-26T12:47:57Z,2020-05-26T12:49:03Z,2020-06-02T12:49:15Z,male,19,1,1,australian,white,1,4,NA,NA,NA,NA,NA,NA,NA,NA,NA,NA,NA,NA,NA,NA,NA,NA,NA,NA,NA,NA,NA,NA,NA,NA,NA,NA,NA,NA,NA,NA,NA,NA,NA,NA,,,0.7083333333333334
FALSE,2020-05-26T19:58:03Z,2020-05-26T20:11:43Z,2020-06-02T20:11:50Z,female,19,1,2,Hong Kong,Christians,1,4,4,2,4,4,4,4,4,4,4,4,4,4,4,2,4,4,2,5,5,5,5,2,2,4,4,3,4,4,2,3,4,4,3,2,Bruno Mars,Just The Way You Are,0
FALSE,2020-05-26T23:06:41Z,2020-05-26T23:09:48Z,2020-06-02T23:09:48Z,male,21,1,2,China,Asia,3,4,NA,NA,NA,NA,NA,NA,NA,NA,NA,NA,NA,NA,NA,NA,NA,NA,NA,NA,NA,NA,NA,NA,NA,NA,NA,NA,NA,NA,NA,NA,NA,NA,NA,NA,,,0.7083333333333334
FALSE,2020-05-27T11:27:33Z,2020-05-27T11:28:52Z,2020-06-03T11:29:02Z,female,17,1,1,Australia,Chinese,3,4,NA,NA,NA,NA,NA,NA,NA,NA,NA,NA,NA,NA,NA,NA,NA,NA,NA,NA,NA,NA,NA,NA,NA,NA,NA,NA,NA,NA,NA,NA,NA,NA,NA,NA,,,0.7083333333333334
TRUE,2020-06-03T18:31:08Z,2020-06-03T18:43:41Z,2020-06-03T18:43:42Z,female,18,5,1,"Australia, Sri Lanka",Sinhalese,1,4,2,2,2,2,2,2,4,1,2,4,4,2,2,1,5,4,5,4,5,5,4,3,6,5,3,5,5,5,4,3,3,4,3,2,Cat Stevens,The Wind,0
TRUE,2020-06-03T23:52:54Z,2020-06-04T00:06:30Z,2020-06-04T00:06:31Z,female,21,3,2,indonesia,indonesian,6,4,4,5,3,4,4,4,3,3,4,4,4,4,3,4,3,3,2,3,5,3,3,3,4,5,3,4,3,3,2,4,3,4,3,3,,,0
FALSE,2020-05-29T17:16:52Z,2020-05-29T17:22:56Z,2020-06-05T17:23:01Z,male,20,1,2,China,None,2,4,5,5,5,5,3,5,5,5,5,1,5,5,5,NA,NA,NA,NA,NA,NA,NA,NA,NA,NA,NA,NA,NA,NA,NA,NA,NA,NA,NA,NA,NA,,,0.4375
TRUE,2020-06-05T19:07:37Z,2020-06-05T19:25:26Z,2020-06-05T19:25:26Z,female,21,3,2,India,Indian,1,4,3,2,4,4,2,2,2,4,2,4,4,3,4,5,5,4,4,2,5,5,4,5,5,4,4,3,5,5,3,2,4,4,4,3,Doja Cat,Say so,0
FALSE,2020-05-30T11:38:52Z,2020-05-30T11:40:23Z,2020-06-06T11:40:30Z,female,19,1,2,china,N/A,3,4,NA,NA,NA,NA,NA,NA,NA,NA,NA,NA,NA,NA,NA,NA,NA,NA,NA,NA,NA,NA,NA,NA,NA,NA,NA,NA,NA,NA,NA,NA,NA,NA,NA,NA,,,0.7083333333333334
FALSE,2020-05-31T11:40:27Z,2020-05-31T11:42:38Z,2020-06-07T11:42:39Z,female,21,3,2,Indonesia,Javanese,5,4,NA,NA,NA,NA,NA,NA,NA,NA,NA,NA,NA,NA,NA,NA,NA,NA,NA,NA,NA,NA,NA,NA,NA,NA,NA,NA,NA,NA,NA,NA,NA,NA,NA,NA,,,0.7083333333333334
